63
Coordinates from ORCA-job preparar_agua_c60 E -133.549021586090
  O          -0.00021614657459      0.02304594072890     -0.12104772189211
  H           0.77730809508590      0.01545121893145      0.44170485406803
  H          -0.76230280300415     -0.01088950944019      0.46141564342668
  C           2.21721529544438      0.58802288064556      2.68260276414952
  C           3.11842363240712      0.15778848282527      1.64183640276207
  C           1.33373214510604     -0.31850278969357      3.25420522062746
  C           3.10143921385325     -1.16256994917180      1.21078527378256
  C           3.20045139242077     -1.46337546325181     -0.19583336506811
  C           3.23431886606883      1.22833314104213      0.68245253332650
  C           3.32746047216016      0.93785704858317     -0.67198390219559
  C           3.31049251020137     -0.43254669556012     -1.11900555691574
  C          -0.44924282375625      1.36339245641085      3.22532286198642
  C           0.46809952442686      2.30449600899890      2.63231494404019
  C          -0.02509652963664      0.07688323008188      3.53083845225874
  C           1.77657637883069      1.92419324414405      2.36597949711147
  C           2.40503443386013      2.31965228392470      1.13007023687344
  C          -0.26209989370612      3.09502774768034      1.67322453133074
  C           0.34237666055517      3.47396095573857      0.48272441728090
  C           1.70075648430569      3.07912336904675      0.20593528186604
  C          -2.13121357778863     -0.84825649035740      2.68388573996055
  C          -2.57214392744830      0.48811471960009      2.36720908128374
  C          -0.88146996141858     -1.04996013178708      3.25493246706852
  C          -1.74695110306463      1.57322873267133      2.63279493163737
  C          -1.63108993002996      2.64320796262098      1.67342833295602
  C          -3.31339204897072      0.43145543277672      1.13123880113340
  C          -3.20003549887236      1.46159115804993      0.20694098678241
  C          -2.34336907384543      2.58778974661885      0.48323768175349
  C          -0.50289072841520     -2.98925109487619      1.80465108037088
  C          -1.80037814523808     -2.78035276280789      1.21204978424599
  C          -0.05238392009398     -2.14130388493274      2.80728449357135
  C          -2.59974818959092     -1.73032426536971      1.64355953529357
  C          -3.33037037322716     -0.93950780772978      0.68423269659096
  C          -1.70147927506434     -3.08082323352912     -0.19418926439744
  C          -2.40371830619541     -2.31894337849509     -1.11742147030151
  C          -3.23283223554521     -1.22798141237989     -0.67029933387843
  C           2.18345032269112     -2.10319674810889      1.80417562169200
  C           1.71568587220678     -2.98503540406327      0.76400071278363
  C           1.31678240886820     -1.68931351245768      2.80696519286276
  C           0.39747505238140     -3.41952211038370      0.76433419338879
  C          -0.34319630236107     -3.47587416153699     -0.47070081416088
  C           2.34399920322089     -2.58958231804565     -0.47149833311030
  C           1.62981888520430     -2.64180208833882     -1.66010004301065
  C           0.26127584557931     -3.09341478432630     -1.65963306919508
  C          -2.21673933527666     -0.58835752493666     -2.66918488988923
  C          -1.77604607319955     -1.92331615596127     -2.35290029620583
  C          -0.46850889483694     -2.30320701098629     -2.61859281652056
  C          -1.33325671971439      0.31692226124031     -3.23872308242282
  C          -2.18401568837387      2.10169538281763     -1.79201520417666
  C          -3.10123540354444      1.16118580890090     -1.19936187571086
  C          -3.11699829689921     -0.15825296475327     -1.62935302019587
  C          -1.31640383054849      1.68666017088571     -2.79184544724336
  C           0.50250640768521      2.98809590332690     -1.79241258196609
  C          -0.39794381070339      3.41779362277277     -0.75263913359039
  C          -1.71571905938154      2.98319499599236     -0.75257537961944
  C           0.05193061661818      2.13832353235102     -2.79213421183488
  C           2.12960589389594      0.84651545274059     -2.67038786963630
  C           2.59740189795432      1.72826864407496     -1.63099015142321
  C           1.79948624455672      2.77862496037005     -1.20014723910956
  C           0.88058580412166      1.04769894501746     -3.23945621220226
  C           0.44866396556764     -1.36324089029116     -3.21135319194001
  C           1.74545955584004     -1.57238466902883     -2.61903557781441
  C           2.57011787586238     -0.48855259642956     -2.35421593105666
  C           0.02455694934572     -0.07795363258037     -3.51529726158195
