25
Coordinates from ORCA-job preparar_complexo E -34.577628682300
  Zn         -0.04410187110735      0.00377658877252      0.03932941359937
  N           0.02524916864646     -0.68786152981892      1.96110679053988
  C          -0.85154561169008     -1.86668046639641      1.99975875037533
  C          -2.10279719281657     -1.55698435070961      1.18778484377290
  N          -1.68901776963402     -1.19348016643613     -0.17480259604306
  H           0.92586824900045     -0.93740562376876      2.35746813977506
  H          -0.37108867960859      0.01333408738401      2.58316834936811
  H          -0.32915757412226     -2.70954381646640      1.54552525690016
  H          -1.12987004279971     -2.14110607746370      3.02080932127153
  H          -2.61985844413572     -0.70807590514214      1.63714279384242
  H          -2.77578490625622     -2.41855127491669      1.19971368662229
  H          -1.42206108641189     -2.04896832977999     -0.65764862092376
  H          -2.49445267478546     -0.82922901362247     -0.67401207760357
  O          -0.13537121413113      0.67070588918505     -1.90617823242294
  H          -0.74268959670907      0.35180569225390     -2.58302367973467
  H           0.17208440299790      1.53689317850875     -2.19871059096952
  O           1.60540417835262      1.21119195296199      0.27759806401851
  H           2.22170910495212      1.42503894034117     -0.43284893710504
  H           2.06315780948860      1.40034391862611      1.10430570992351
  O           1.21147670175140     -1.49045436859066     -0.67267118581211
  H           1.38897694783306     -1.54946145812916     -1.61891794607719
  H           2.00359252873059     -1.81276336423095     -0.22825286313455
  O          -1.18295915266939      1.64901056528782      0.60538982869191
  H          -2.00573679698776      1.91617965644036      0.18053035736094
  H          -0.75661499098800      2.46181716581033      0.90205941556450
