43
Relaxed GFN2-xTB ALPB; translated so Zn0 starts at origin; charge +2 singlet
Zn 0.0000000000 0.0000000000 0.0000000000
N  0.1494592615 -0.6439414850 1.9310282299
C  -0.6137901344 -1.8887098910 2.0071490700
C  -1.9061699957 -1.6911429727 1.2190285663
N  -1.5586406680 -1.3002683680 -0.1490131493
H  1.1059655769 -0.7805516429 2.2498503169
H  -0.2655958379 0.0352968784 2.5612788479
H  -0.0308281884 -2.6829000490 1.5397534597
H  -0.8437917944 -2.1817841946 3.0364534195
H  -2.4766818461 -0.8811725505 1.6751890429
H  -2.5081554867 -2.6044190544 1.2517877209
H  -1.2732395738 -2.1304583280 -0.6590280298
H  -2.3914910881 -0.9455083801 -0.6220874227
O  -0.0124089151 0.5617875121 -1.9284480869
H  -0.7901709076 0.6371898980 -2.5277746584
H  0.6127364872 1.2637733181 -2.1838096728
O  1.5532380764 1.2914250750 0.2950983840
H  2.0154618081 1.6824104028 -0.4631010164
H  2.2263547020 0.9647867733 0.9219559457
O  1.3577467247 -1.4845137644 -0.6262725586
H  1.4274809622 -1.5563340209 -1.5844925324
H  2.2675379460 -1.5595077469 -0.2837060899
O  -1.2439224121 1.5544947538 0.5512907038
H  -2.0213365879 1.8420115989 0.0341066204
H  -0.7761742046 2.3580354796 0.8013783884
O  3.9904450723 -1.9573723829 0.2043105412
H  4.0963444533 -2.8859517003 0.4304155385
H  4.7088182978 -1.7219626817 -0.3911726850
O  -2.1675814974 0.5654333254 -3.5192156355
H  -2.8354596131 0.2350291681 -2.8879980504
H  -2.1358968270 -0.0623162663 -4.2442325278
O  -3.5009626655 2.5017999049 -0.7225747414
H  -4.0901047720 3.0206459424 -0.1677951095
H  -3.3175319162 3.0145565563 -1.5164825016
O  3.0875930952 -0.1012788364 2.0890052478
H  3.5139073761 -0.7605009562 1.5146347776
H  3.7296286142 0.1668965618 2.7487859874
O  -3.8903230549 -0.1314939178 -1.4788124469
H  -4.8145697340 -0.3884717693 -1.4942104969
H  -3.8476212612 0.7815778884 -1.1356030646
O  2.0530314858 2.3992307578 -2.2893451562
H  1.8403706235 3.3299352496 -2.3989430700
H  2.7196020139 2.1788159431 -2.9454975503
