7
Coordinates from ORCA-job z00_otimizar E -10.210133457370
  O          -1.19345817074522      0.17646804906572      0.17122190484488
  O           1.21572526872885     -0.16865453348367     -0.17845947003107
  H           0.01115351685316      0.00384993107425     -0.00349933898496
  H          -1.65026203146322      0.50127324929764     -0.62030260894495
  H          -1.64922809634862     -0.61740672709059      0.49171722161426
  H           1.67249409653824     -0.49384095241469      0.61293048397896
  H           1.67157541643680      0.62531098355134     -0.49860819247712
