43
# ORCA AIMD Position Step 0, t=0.00 fs, E_Pot=-171079.43678402 kJ mol^-1, Unit is Angstrom
Zn      0.0000000000      0.0000000000      0.0000000000
 N      0.1494592622     -0.6439414879      1.9310282385
 C     -0.6137901371     -1.8887098995      2.0071490790
 C     -1.9061700042     -1.6911429803      1.2190285718
 N     -1.5586406750     -1.3002683738     -0.1490131500
 H      1.1059655819     -0.7805516464      2.2498503270
 H     -0.2655958391      0.0352968786      2.5612788594
 H     -0.0308281885     -2.6829000610      1.5397534666
 H     -0.8437917982     -2.1817842044      3.0364534331
 H     -2.4766818572     -0.8811725544      1.6751890504
 H     -2.5081554979     -2.6044190661      1.2517877265
 H     -1.2732395795     -2.1304583375     -0.6590280328
 H     -2.3914910988     -0.9455083843     -0.6220874255
 O     -0.0124089152      0.5617875146     -1.9284480955
 H     -0.7901709111      0.6371899009     -2.5277746697
 H      0.6127364899      1.2637733238     -2.1838096826
 O      1.5532380834      1.2914250808      0.2950983853
 H      2.0154618171      1.6824104103     -0.4631010185
 H      2.2263547120      0.9647867776      0.9219559498
 O      1.3577467308     -1.4845137710     -0.6262725614
 H      1.4274809686     -1.5563340279     -1.5844925395
 H      2.2675379562     -1.5595077539     -0.2837060912
 O     -1.2439224177      1.5544947608      0.5512907063
 H     -2.0213365970      1.8420116071      0.0341066206
 H     -0.7761742081      2.3580354902      0.8013783920
 O      3.9904450902     -1.9573723917      0.2043105421
 H      4.0963444716     -2.8859517132      0.4304155404
 H      4.7088183189     -1.7219626894     -0.3911726868
 O     -2.1675815071      0.5654333279     -3.5192156513
 H     -2.8354596258      0.2350291692     -2.8879980633
 H     -2.1358968366     -0.0623162666     -4.2442325468
 O     -3.5009626812      2.5017999161     -0.7225747446
 H     -4.0901047903      3.0206459559     -0.1677951103
 H     -3.3175319311      3.0145565698     -1.5164825084
 O      3.0875931090     -0.1012788369      2.0890052572
 H      3.5139073918     -0.7605009596      1.5146347844
 H      3.7296286309      0.1668965625      2.7487859997
 O     -3.8903230723     -0.1314939184     -1.4788124535
 H     -4.8145697556     -0.3884717710     -1.4942105036
 H     -3.8476212784      0.7815778919     -1.1356030697
 O      2.0530314950      2.3992307685     -2.2893451665
 H      1.8403706317      3.3299352645     -2.3989430807
 H      2.7196020261      2.1788159529     -2.9454975635
43
# ORCA AIMD Position Step 1, t=0.50 fs, E_Pot=-171074.38956997 kJ mol^-1, Unit is Angstrom
Zn     -0.0000356786     -0.0012095308      0.0005262302
 N      0.1494943604     -0.6433625809      1.9299239182
 C     -0.6160699465     -1.8897835270      2.0036609315
 C     -1.9051219150     -1.6876977864      1.2219093758
 N     -1.5636396786     -1.2991425262     -0.1491940004
 H      1.1089266522     -0.7753361735      2.2564802709
 H     -0.2699962934      0.0304417678      2.5816172164
 H     -0.0237473514     -2.6830109937      1.5385722174
 H     -0.8400265417     -2.1832356645      3.0504410557
 H     -2.4771244341     -0.8671013837      1.6747275920
 H     -2.5188489491     -2.6139525969      1.2431889165
 H     -1.2809745745     -2.1219270040     -0.6581556981
 H     -2.3819507112     -0.9443261057     -0.6336979075
 O     -0.0131452614      0.5601133582     -1.9269852480
 H     -0.7758676035      0.6412929661     -2.5156997295
 H      0.6104550056      1.2648435291     -2.1727078796
 O      1.5546783850      1.2929741996      0.2945541358
 H      2.0113218388      1.6724928143     -0.4534229784
 H      2.2344993599      0.9642481681      0.9148517112
 O      1.3579547680     -1.4813482843     -0.6292311004
 H      1.4241586439     -1.5631948170     -1.5974540585
 H      2.2717075144     -1.5414426855     -0.2814103109
 O     -1.2439799933      1.5542665492      0.5509322348
 H     -2.0227312357      1.8381242738      0.0373877318
 H     -0.7652018819      2.3592816791      0.8034280362
 O      3.9943119604     -1.9567828951      0.2070138356
 H      4.0921915753     -2.8943613960      0.4194848865
 H      4.6986310103     -1.7169330382     -0.3979324030
 O     -2.1653745901      0.5693217666     -3.5197513045
 H     -2.8334860370      0.2396900546     -2.8764836852
 H     -2.1356194320     -0.0698402241     -4.2544505857
 O     -3.5002347437      2.5020009466     -0.7206897672
 H     -4.0984639081      3.0168065333     -0.1543769636
 H     -3.3153539950      3.0151619218     -1.5183359272
 O      3.0856589073     -0.1002564410      2.0892158282
 H      3.5150560909     -0.7566931969      1.5138935834
 H      3.7277941694      0.1599589358      2.7481481059
 O     -3.8898837058     -0.1357999171     -1.4806221613
 H     -4.8284624832     -0.3908589054     -1.4758369625
 H     -3.8525904869      0.7875351535     -1.1451818463
 O      2.0525674107      2.3966327691     -2.2919702664
 H      1.8368214448      3.3259358148     -2.4011138755
 H      2.7299838999      2.1764789791     -2.9545498060
43
# ORCA AIMD Position Step 2, t=1.00 fs, E_Pot=-171061.13373803 kJ mol^-1, Unit is Angstrom
Zn     -0.0000714553     -0.0024120449      0.0010504572
 N      0.1495147727     -0.6427476414      1.9288945090
 C     -0.6183042356     -1.8908704188      2.0002751097
 C     -1.9041728524     -1.6843154797      1.2247536196
 N     -1.5685707552     -1.2979964777     -0.1493372518
 H      1.1114965974     -0.7701853803      2.2628827979
 H     -0.2739585180      0.0250358074      2.6010580353
 H     -0.0169648420     -2.6829900321      1.5374824681
 H     -0.8361542982     -2.1844778141      3.0633137872
 H     -2.4773191290     -0.8536457644      1.6741369130
 H     -2.5288932310     -2.6224251829      1.2348157652
 H     -1.2883781928     -2.1140981646     -0.6575783547
 H     -2.3730736134     -0.9429025367     -0.6452844839
 O     -0.0138078317      0.5584380374     -1.9254704257
 H     -0.7628837791      0.6454508414     -2.5046459603
 H      0.6083711510      1.2660338606     -2.1617436191
 O      1.5560741909      1.2944730073      0.2940903860
 H      2.0079090483      1.6633069571     -0.4450900219
 H      2.2424575147      0.9636976468      0.9078620131
 O      1.3581853915     -1.4782063491     -0.6322223232
 H      1.4208792182     -1.5699253708     -1.6092386062
 H      2.2754694093     -1.5235169964     -0.2793892765
 O     -1.2440022859      1.5540686459      0.5505932765
 H     -2.0242056835      1.8343752671      0.0406091417
 H     -0.7547540351      2.3599392730      0.8052289633
 O      3.9981362232     -1.9562277385      0.2097218263
 H      4.0880618134     -2.9022151358      0.4084771054
 H      4.6887925609     -1.7119187692     -0.4048527643
 O     -2.1632052978      0.5731147839     -3.5203265450
 H     -2.8310640268      0.2444758013     -2.8656159903
 H     -2.1354705307     -0.0763425118     -4.2633817973
 O     -3.4995436547      2.5022369923     -0.7187975696
 H     -4.1061041565      3.0125177343     -0.1417648257
 H     -3.3133539820      3.0156419810     -1.5197701589
 O      3.0837295708     -0.0992473411      2.0894110243
 H      3.5161536423     -0.7529427075      1.5131252705
 H      3.7261371400      0.1531975305      2.7477653663
 O     -3.8895340414     -0.1400605366     -1.4824058118
 H     -4.8409456465     -0.3929595676     -1.4576348430
 H     -3.8574543026      0.7929188219     -1.1548682303
 O      2.0521583178      2.3940279228     -2.2946293971
 H      1.8333141957      3.3220084153     -2.4033140273
 H      2.7394319227      2.1744644065     -2.9627197697
43
# ORCA AIMD Position Step 3, t=1.50 fs, E_Pot=-171044.33512078 kJ mol^-1, Unit is Angstrom
Zn     -0.0001076334     -0.0036062874      0.0015730837
 N      0.1495080463     -0.6420662074      1.9280032961
 C     -0.6204566275     -1.8919844908      1.9970650062
 C     -1.9034053045     -1.6810324316      1.2275356158
 N     -1.5733935171     -1.2968062520     -0.1494094061
 H      1.1133500423     -0.7651505061      2.2688687682
 H     -0.2771334530      0.0186337537      2.6188862887
 H     -0.0107276491     -2.6827231871      1.5365540710
 H     -0.8320949806     -2.1853548315      3.0741881810
 H     -2.4770552700     -0.8412916552      1.6733151637
 H     -2.5377945862     -2.6290024573      1.2268599026
 H     -1.2951778559     -2.1075878652     -0.6575633125
 H     -2.3654144636     -0.9410131559     -0.6568730021
 O     -0.0143221965      0.5567515985     -1.9238436277
 H     -0.7525219210      0.6497750679     -2.4956048914
 H      0.6066459133      1.2674481534     -2.1509830428
 O      1.5573882866      1.2958802842      0.2937839329
 H      2.0059048445      1.6555026261     -0.4393748635
 H      2.2501004664      0.9631296715      0.9010568531
 O      1.3584590620     -1.4750959991     -0.6352823296
 H      1.4176823256     -1.5764216696     -1.6189298939
 H      2.2784733888     -1.5057979742     -0.2778849340
 O     -1.2439591332      1.5539230029      0.5502898305
 H     -2.0258221735      1.8309044940      0.0437187751
 H     -0.7452441748      2.3595316565      0.8065765082
 O      4.0018975139     -1.9557351960      0.2124482532
 H      4.0839650900     -2.9090409118      0.3972902874
 H      4.6795402177     -1.7069200238     -0.4120941343
 O     -2.1610969562      0.5767509125     -3.5209714479
 H     -2.8278112861      0.2495030434     -2.8559065650
 H     -2.1355472018     -0.0810446688     -4.2700531480
 O     -3.4989171508      2.5025347136     -0.7168848117
 H     -4.1124605557      3.0074246621     -0.1305875688
 H     -3.3116790152      3.0159002699     -1.5204335194
 O      3.0818021332     -0.0982589606      2.0895783136
 H      3.5171550571     -0.7492882410      1.5123046087
 H      3.7248003670      0.1467365690      2.7478593079
 O     -3.8893469770     -0.1442506478     -1.4841455978
 H     -4.8509117962     -0.3945712109     -1.4397300396
 H     -3.8621296831      0.7972512637     -1.1647800914
 O      2.0518470104      2.3914014841     -2.2973587826
 H      1.8298705244      3.3181999671     -2.4055763635
 H      2.7472272684      2.1730163822     -2.9693381165
43
# ORCA AIMD Position Step 4, t=2.00 fs, E_Pot=-171029.22912578 kJ mol^-1, Unit is Angstrom
Zn     -0.0001451009     -0.0048091886      0.0021023415
 N      0.1494633407     -0.6412866921      1.9272907763
 C     -0.6225225598     -1.8931514577      1.9940426565
 C     -1.9028777806     -1.6778262967      1.2302691958
 N     -1.5781461330     -1.2955342112     -0.1493861863
 H      1.1142616537     -0.7602146727      2.2743578447
 H     -0.2793053034      0.0108375591      2.6347732896
 H     -0.0051630330     -2.6821180266      1.5358216757
 H     -0.8277485705     -2.1857699935      3.0825209301
 H     -2.4761610282     -0.8302586428      1.6721847230
 H     -2.5453014238     -2.6331323076      1.2193942027
 H     -1.3012503589     -2.1027996150     -0.6583145805
 H     -2.3593011581     -0.9384495731     -0.6686257860
 O     -0.0146287977      0.5550199245     -1.9220273955
 H     -0.7457825732      0.6544512722     -2.4893247894
 H      0.6053710169      1.2691744321     -2.1403144676
 O      1.5586111191      1.2971840004      0.2936936028
 H      2.0058348904      1.6494857431     -0.4372528749
 H      2.2574181808      0.9625336360      0.8943995799
 O      1.3587958982     -1.4719768578     -0.6384814158
 H      1.4145678419     -1.5826852231     -1.6259930593
 H      2.2804785667     -1.4880937398     -0.2770837930
 O     -1.2438256247      1.5538418303      0.5500298804
 H     -2.0276538610      1.8277851348      0.0467212950
 H     -0.7368625910      2.3577112737      0.8073307027
 O      4.0056376856     -1.9553198312      0.2152429147
 H      4.0798575404     -2.9145518039      0.3856852286
 H      4.6708881977     -1.7018782502     -0.4198711632
 O     -2.1590359000      0.5802408510     -3.5217141406
 H     -2.8233926589      0.2549264056     -2.8476238336
 H     -2.1359180427     -0.0834630782     -4.2738713997
 O     -3.4983661102      2.5029150333     -0.7149125307
 H     -4.1172046787      3.0012194055     -0.1211641784
 H     -3.3104250435      3.0158846980     -1.5200665849
 O      3.0798471333     -0.0972823677      2.0897108081
 H      3.5180310939     -0.7457082354      1.5113983330
 H      3.7238596071      0.1405763589      2.7486004754
 O     -3.8893758012     -0.1484099407     -1.4858511187
 H     -4.8576798611     -0.3955977114     -1.4219997693
 H     -3.8665990671      0.8002127309     -1.1751477495
 O      2.0516599918      2.3887037403     -2.3002247751
 H      1.8264561863      3.3144900986     -2.4079603024
 H      2.7529625921      2.1722835854     -2.9740261152
43
# ORCA AIMD Position Step 5, t=2.50 fs, E_Pot=-171020.15134390 kJ mol^-1, Unit is Angstrom
Zn     -0.0001843502     -0.0060223244      0.0026396038
 N      0.1493708320     -0.6403949523      1.9267989045
 C     -0.6244694195     -1.8943775662      1.9912503440
 C     -1.9026474144     -1.6747104961      1.2329295922
 N     -1.5828101831     -1.2941648755     -0.1492549825
 H      1.1140645894     -0.7554367193      2.2792114292
 H     -0.2803034099      0.0014721261      2.6482848953
 H     -0.0004508734     -2.6811160053      1.5353068908
 H     -0.8231037485     -2.1856559425      3.0877890954
 H     -2.4745130067     -0.8208435119      1.6707176700
 H     -2.5511434432     -2.6343387627      1.2125941303
 H     -1.3064522280     -2.1000518711     -0.6599386238
 H     -2.3550190053     -0.9350922927     -0.6804865235
 O     -0.0146812960      0.5532345034     -1.9199825997
 H     -0.7434414952      0.6595877875     -2.4864015130
 H      0.6046082393      1.2712344563     -2.1297543827
 O      1.5597313806      1.2983674817      0.2938563759
 H      2.0080027230      1.6455460926     -0.4393614327
 H      2.2643072641      0.9619116198      0.8879347836
 O      1.3592074870     -1.4688470694     -0.6418383039
 H      1.4115845051     -1.5886467137     -1.6300056843
 H      2.2812799493     -1.4704505580     -0.2771541423
 O     -1.2435842913      1.5538312130      0.5498214774
 H     -2.0297326994      1.8251199597      0.0495946047
 H     -0.7298343353      2.3542798826      0.8073822562
 O      4.0093558212     -1.9549945717      0.2181140274
 H      4.0757563296     -2.9184769358      0.3735987081
 H      4.6628789487     -1.6968221993     -0.4282322028
 O     -2.1570303382      0.5835645237     -3.5225642579
 H     -2.8176129616      0.2607963161     -2.8410613163
 H     -2.1366244853     -0.0832625139     -4.2744162384
 O     -3.4979020324      2.5033844978     -0.7128695305
 H     -4.1200712057      2.9937776500     -0.1138103700
 H     -3.3096811525      3.0155888028     -1.5184940193
 O      3.0778637505     -0.0963198769      2.0898034654
 H      3.5187399488     -0.7422228792      1.5103893167
 H      3.7233455898      0.1347709538      2.7500910081
 O     -3.8896600843     -0.1525260339     -1.4875115156
 H     -4.8607078980     -0.3960003131     -1.4045609180
 H     -3.8707777225      0.8015306611     -1.1860358091
 O      2.0516163756      2.3859237780     -2.3032476038
 H      1.8230782432      3.3108952311     -2.4104876858
 H      2.7563181894      2.1723628335     -2.9765022976
43
# ORCA AIMD Position Step 6, t=3.00 fs, E_Pot=-171018.85717515 kJ mol^-1, Unit is Angstrom
Zn     -0.0002255460     -0.0072347502      0.0031805062
 N      0.1492225923     -0.6393955545      1.9265611558
 C     -0.6262467692     -1.8956506867      1.9887458741
 C     -1.9027591268     -1.6717245768      1.2354633707
 N     -1.5873261007     -1.2927066194     -0.1490217538
 H      1.1126999620     -0.7509345412      2.2832732214
 H     -0.2800491749     -0.0093863749      2.6590069986
 H      0.0032232559     -2.6797082361      1.5350058062
 H     -0.8182319477     -2.1849895810      3.0896052038
 H     -2.4720613593     -0.8133326549      1.6689455044
 H     -2.5550994378     -2.6323149412      1.2066934821
 H     -1.3106812040     -2.0994559016     -0.6623919379
 H     -2.3527148195     -0.9309447523     -0.6921861348
 O     -0.0144669324      0.5514121938     -1.9177200716
 H     -0.7457017388      0.6651774503     -2.4870087656
 H      0.6043599923      1.2735703227     -2.1194188504
 O      1.5607478805      1.2994204436      0.2942697216
 H      2.0123289018      1.6437149940     -0.4457085951
 H      2.2706070958      0.9612779528      0.8817623675
 O      1.3596948065     -1.4657352646     -0.6453234767
 H      1.4088157461     -1.5941986839     -1.6307803552
 H      2.2807634687     -1.4530999530     -0.2782104912
 O     -1.2432292671      1.5538882350      0.5496700047
 H     -2.0320402127      1.8230165614      0.0523051851
 H     -0.7243434660      2.3492445093      0.8066805651
 O      4.0130189465     -1.9547654389      0.2210324682
 H      4.0717275374     -2.9206445521      0.3611280638
 H      4.6555388092     -1.6918591074     -0.4370501644
 O     -2.1551027654      0.5866854586     -3.5235124068
 H     -2.8104522575      0.2670583285     -2.8364528808
 H     -2.1376733118     -0.0803433052     -4.2715483721
 O     -3.4975325250      2.5039331825     -0.7107693322
 H     -4.1209370185      2.9851842517     -0.1087419116
 H     -3.3095076717      3.0150665304     -1.5156711418
 O      3.0758761689     -0.0953820186      2.0898553303
 H      3.5192350915     -0.7388813555      1.5092785977
 H      3.7232184368      0.1293999280      2.7523319600
 O     -3.8902177170     -0.1565476527     -1.4891023685
 H     -4.8597275428     -0.3958169489     -1.3877008562
 H     -3.8745369791      0.8010454854     -1.1973500731
 O      2.0517226796      2.3830851862     -2.3064037981
 H      1.8197744536      3.3074524905     -2.4131433043
 H      2.7571579693      2.1732722516     -2.9766669242
43
# ORCA AIMD Position Step 7, t=3.50 fs, E_Pot=-171023.90208583 kJ mol^-1, Unit is Angstrom
Zn     -0.0002688123     -0.0084328115      0.0037192115
 N      0.1490128333     -0.6383061635      1.9265923188
 C     -0.6278070097     -1.8969494363      1.9865743284
 C     -1.9032364125     -1.6689076967      1.2378136276
 N     -1.5916333214     -1.2911826914     -0.1487123980
 H      1.1102426564     -0.7468387451      2.2864290474
 H     -0.2785894234     -0.0214654840      2.6667213073
 H      0.0057328073     -2.6779377622      1.5348793886
 H     -0.8132489880     -2.1837987676      3.0878268128
 H     -2.4688342373     -0.8078820067      1.6669521345
 H     -2.5570784594     -2.6269890883      1.2019046003
 H     -1.3139410094     -2.1008438608     -0.6654747728
 H     -2.3523280613     -0.9261243900     -0.7033429761
 O     -0.0140150942      0.5495827696     -1.9152904011
 H     -0.7520397411      0.6711069527     -2.4907694442
 H      0.6045570281      1.2760609890     -2.1094343822
 O      1.5616798356      1.3003500738      0.2948883679
 H      2.0183343537      1.6437095258     -0.4556127652
 H      2.2761721289      0.9606540504      0.8759796667
 O      1.3602498212     -1.4626747945     -0.6488840859
 H      1.4063477608     -1.5992602847     -1.6284611689
 H      2.2789460116     -1.4363039645     -0.2802892358
 O     -1.2427672294      1.5539997576      0.5495752008
 H     -2.0345166733      1.8215522559      0.0548359853
 H     -0.7204389819      2.3428207441      0.8052503586
 O      4.0165924718     -1.9546266545      0.2239546400
 H      4.0678472241     -2.9210599808      0.3484363609
 H      4.6488144087     -1.6871281618     -0.4460875030
 O     -2.1532720215      0.5895815005     -3.5245358581
 H     -2.8020475667      0.2735943825     -2.8338726931
 H     -2.1390381283     -0.0748921456     -4.2654768911
 O     -3.4972555295      2.5045374847     -0.7086350197
 H     -4.1198865715      2.9756887839     -0.1059649678
 H     -3.3099179100      3.0144335153     -1.5116966811
 O      3.0739173446     -0.0944793819      2.0898709668
 H      3.5194770211     -0.7357299574      1.5080811091
 H      3.7233592703      0.1245141329      2.7552220371
 O     -3.8910417707     -0.1604204355     -1.4906013171
 H     -4.8548481057     -0.3951731246     -1.3717071468
 H     -3.8777478975      0.7987626132     -1.2089226963
 O      2.0519693163      2.3802245386     -2.3096482838
 H      1.8165839885      3.3041868385     -2.4158928060
 H      2.7556075068      2.1749386677     -2.9746655931
43
# ORCA AIMD Position Step 8, t=4.00 fs, E_Pot=-171031.73790623 kJ mol^-1, Unit is Angstrom
Zn     -0.0003150339     -0.0096225788      0.0042585139
 N      0.1487342475     -0.6371362804      1.9268886829
 C     -0.6291359424     -1.8982679223      1.9847275414
 C     -1.9040900758     -1.6662466619      1.2399653705
 N     -1.5957496431     -1.2896007897     -0.1483634228
 H      1.1068479635     -0.7432123293      2.2886670451
 H     -0.2760637581     -0.0345392323      2.6715533384
 H      0.0070598820     -2.6758646130      1.5348530670
 H     -0.8082155728     -2.1821360304      3.0825167701
 H     -2.4648750833     -0.8044159042      1.6648318992
 H     -2.5571514963     -2.6184138000      1.1983221231
 H     -1.3163869239     -2.1038378141     -0.6689174021
 H     -2.3536217448     -0.9207568027     -0.7136951060
 O     -0.0133797104      0.5477535391     -1.9127306936
 H     -0.7614821370      0.6772728267     -2.4969455275
 H      0.6050753765      1.2785814979     -2.0997557012
 O      1.5625767445      1.3011923031      0.2956474078
 H      2.0253702497      1.6450320673     -0.4680739041
 H      2.2809804811      0.9600538257      0.8705762211
 O      1.3608661931     -1.4596464264     -0.6525116420
 H      1.4042196182     -1.6038791257     -1.6234640505
 H      2.2759389002     -1.4200327230     -0.2833872369
 O     -1.2422083566      1.5541454141      0.5495297392
 H     -2.0371102481      1.8207468151      0.0572317708
 H     -0.7179649121      2.3352972478      0.8031611476
 O      4.0201053317     -1.9545591150      0.2268790655
 H      4.0641248089     -2.9199066040      0.3355079297
 H      4.6424785915     -1.6827010115     -0.4551876882
 O     -2.1515192424      0.5922982781     -3.5256185237
 H     -2.7925281760      0.2803496971     -2.8331858920
 H     -2.1406898585     -0.0672725534     -4.2566322385
 O     -3.4970544229      2.5051729197     -0.7064597141
 H     -4.1171850360      2.9655131567     -0.1052302582
 H     -3.3108887008      3.0138461244     -1.5067255731
 O      3.0719910570     -0.0936061080      2.0898596853
 H      3.5194389188     -0.7327543167      1.5068010478
 H      3.7235913263      0.1200521620      2.7586294599
 O     -3.8921167507     -0.1641598047     -1.4920169320
 H     -4.8464497986     -0.3942621330     -1.3565469910
 H     -3.8803427328      0.7948078124     -1.2207379958
 O      2.0523358240      2.3773372177     -2.3129758599
 H      1.8134881823      3.3010529973     -2.4187343955
 H      2.7520148295      2.1772358861     -2.9708386801
43
# ORCA AIMD Position Step 9, t=4.50 fs, E_Pot=-171038.25643065 kJ mol^-1, Unit is Angstrom
Zn     -0.0003653735     -0.0108144855      0.0048030945
 N      0.1483791883     -0.6358980103      1.9274354193
 C     -0.6302268058     -1.8996002345      1.9831809410
 C     -1.9053231827     -1.6637161152      1.2419108976
 N     -1.5997096038     -1.2879675723     -0.1480192366
 H      1.1027425569     -0.7401130163      2.2900092060
 H     -0.2726868389     -0.0483183284      2.6737911456
 H      0.0072278560     -2.6735755063      1.5348240018
 H     -0.8031950289     -2.1800778702      3.0738585721
 H     -2.4602584101     -0.8027582977      1.6627066393
 H     -2.5554689059     -2.6067322895      1.1960150970
 H     -1.3182355056     -2.1079480881     -0.6723960967
 H     -2.3562879799     -0.9149967052     -0.7229698162
 O     -0.0126249677      0.5459297538     -1.9100792665
 H     -0.7728661578      0.6835405075     -2.5046521241
 H      0.6057634865      1.2809899541     -2.0903034273
 O      1.5634960507      1.3019901782      0.2964735976
 H      2.0327217133      1.6471288209     -0.4819663215
 H      2.2850449211      0.9594886994      0.8655233158
 O      1.3615345671     -1.4566178857     -0.6561999322
 H      1.4024620918     -1.6081598307     -1.6164091214
 H      2.2719291156     -1.4041865510     -0.2874685099
 O     -1.2415684146      1.5542982603      0.5495224929
 H     -2.0397549547      1.8206024190      0.0595593473
 H     -0.7166599522      2.3270654188      0.8005202052
 O      4.0236012179     -1.9545358612      0.2298118694
 H      4.0605537194     -2.9174807881      0.3222937868
 H      4.6362591157     -1.6786381783     -0.4641911909
 O     -2.1498135386      0.5949070257     -3.5267400788
 H     -2.7820816987      0.2872601580     -2.8341364895
 H     -2.1425924920     -0.0580282057     -4.2456549908
 O     -3.4969038996      2.5058089495     -0.7042330082
 H     -4.1132349236      2.9549378891     -0.1061361045
 H     -3.3123770375      3.0134995017     -1.5009707205
 O      3.0700960363     -0.0927526179      2.0898331062
 H      3.5190959526     -0.7299263189      1.5054427966
 H      3.7237045118      0.1159241285      2.7623944902
 O     -3.8934160020     -0.1677979473     -1.4933678429
 H     -4.8351321260     -0.3933405228     -1.3420794683
 H     -3.8822586895      0.7893999289     -1.2328003800
 O      2.0527917944      2.3744119991     -2.3163834004
 H      1.8104532449      3.2979842537     -2.4216694728
 H      2.7469002784      2.1799900200     -2.9656804595
43
# ORCA AIMD Position Step 10, t=5.00 fs, E_Pot=-171040.00326082 kJ mol^-1, Unit is Angstrom
Zn     -0.0004207633     -0.0120106633      0.0053538016
 N      0.1479437159     -0.6346189747      1.9282019797
 C     -0.6310669402     -1.9009260545      1.9819107919
 C     -1.9069196219     -1.6613053021      1.2436278926
 N     -1.6035199082     -1.2863029508     -0.1477309209
 H      1.0982534575     -0.7376281376      2.2904883148
 H     -0.2687806570     -0.0623092024      2.6738516097
 H      0.0062906111     -2.6712046215      1.5346622848
 H     -0.7983076157     -2.1777473646      3.0622390792
 H     -2.4551335435     -0.8026622541      1.6607475955
 H     -2.5522761267     -2.5922941502      1.1950578873
 H     -1.3197174915     -2.1125989845     -0.6755346264
 H     -2.3599713695     -0.9090648802     -0.7308058061
 O     -0.0118207252      0.5441313777     -1.9073933831
 H     -0.7849347894      0.6897074141     -2.5129413563
 H      0.6064523511      1.2831169341     -2.0810692779
 O      1.5644865215      1.3027800481      0.2972880616
 H      2.0396416613      1.6494560015     -0.4960811178
 H      2.2883668218      0.9589705283      0.8608356864
 O      1.3622360821     -1.4535759263     -0.6599064385
 H      1.4011184084     -1.6122217128     -1.6081742578
 H      2.2672119774     -1.3887642438     -0.2924293867
 O     -1.2408741269      1.5544239469      0.5495394521
 H     -2.0423486377      1.8211124920      0.0618784155
 H     -0.7161865471      2.3186864519      0.7974923668
 O      4.0270998923     -1.9545241371      0.2327374890
 H      4.0571462527     -2.9141955999      0.3088434172
 H      4.6299300144     -1.6750243434     -0.4728624411
 O     -2.1481303633      0.5974767443     -3.5278639811
 H     -2.7710588597      0.2941800294     -2.8363464739
 H     -2.1446883678     -0.0479815932     -4.2335060656
 O     -3.4967718344      2.5064032340     -0.7019653145
 H     -4.1086068544      2.9444043665     -0.1081335297
 H     -3.3143131698      3.0136226452     -1.4947403534
 O      3.0682450031     -0.0919152159      2.0898040532
 H      3.5184274537     -0.7272371870      1.5040234419
 H      3.7234741628      0.1120657987      2.7663135090
 O     -3.8948888043     -0.1713440705     -1.4946685094
 H     -4.8218207478     -0.3927396222     -1.3281982141
 H     -3.8834145270      0.7828971561     -1.2450135682
 O      2.0532926980      2.3714614097     -2.3198342887
 H      1.8074636114      3.2949291869     -2.4246736984
 H      2.7409981616      2.1829581010     -2.9598807330
43
# ORCA AIMD Position Step 11, t=5.50 fs, E_Pot=-171035.36133635 kJ mol^-1, Unit is Angstrom
Zn     -0.0004817595     -0.0132042826      0.0059073006
 N      0.1474304364     -0.6333435435      1.9291375762
 C     -0.6316422483     -1.9022099609      1.9808875713
 C     -1.9088348708     -1.6590149614      1.2450836385
 N     -1.6071595864     -1.2846389514     -0.1475502040
 H      1.0937994618     -0.7358601881      2.2901606024
 H     -0.2647827098     -0.0758113358      2.6723252699
 H      0.0043524982     -2.6689317068      1.5342164446
 H     -0.7937309789     -2.1753250249      3.0483299934
 H     -2.4497374393     -0.8037808747      1.6591691583
 H     -2.5479589094     -2.5757357286      1.1955002849
 H     -1.3210612710     -2.1171763400     -0.6779483117
 H     -2.3642861125     -0.9032326281     -0.7368084974
 O     -0.0110359447      0.5423909060     -1.9047443341
 H     -0.7964598044      0.6955274773     -2.5208954851
 H      0.6069728404      1.2847866716     -2.0721187103
 O      1.5655816638      1.3035882001      0.2980135874
 H      2.0454290743      1.6515265000     -0.5092371307
 H      2.2909515318      0.9585082342      0.8565710650
 O      1.3629420750     -1.4505282518     -0.6635520027
 H      1.4002355663     -1.6162016737     -1.5998865451
 H      2.2621968157     -1.3738596878     -0.2980842205
 O     -1.2401627350      1.5544829995      0.5495642265
 H     -2.0447604157      1.8222516498      0.0642359422
 H     -0.7161358731      2.3108652735      0.7942966488
 O      4.0305941767     -1.9544875808      0.2356193369
 H      4.0539286480     -2.9105709660      0.2953094696
 H      4.6233387061     -1.6719503364     -0.4809167463
 O     -2.1464522207      0.6000722838     -3.5289381507
 H     -2.7599814129      0.3008819800     -2.8392973540
 H     -2.1468992266     -0.0382365100     -4.2214685243
 O     -3.4966199625      2.5069044880     -0.6996901155
 H     -4.1040325509      2.9344978457     -0.1105262721
 H     -3.3165982844      3.0144522921     -1.4884226111
 O      3.0664632760     -0.0910965271      2.0897852855
 H      3.5174248264     -0.7246978274      1.5025730979
 H      3.7226894530      0.1084426332      2.7701565588
 O     -3.8964570652     -0.1747843318     -1.4959300424
 H     -4.8077919791     -0.3928505212     -1.3148122078
 H     -3.8837283607      0.7758120929     -1.2571776064
 O      2.0537804574      2.3685225934     -2.3232575675
 H      1.8045237030      3.2918572563     -2.4276967992
 H      2.7352466225      2.1858357177     -2.9543115785
43
# ORCA AIMD Position Step 12, t=6.00 fs, E_Pot=-171025.24575782 kJ mol^-1, Unit is Angstrom
Zn     -0.0005492990     -0.0143967302      0.0064640221
 N      0.1468430735     -0.6321126950      1.9301849572
 C     -0.6319490598     -1.9034210544      1.9800569912
 C     -1.9110187518     -1.6568205996      1.2462606390
 N     -1.6106340134     -1.2829934401     -0.1475200839
 H      1.0897913792     -0.7348845509      2.2891045148
 H     -0.2611656515     -0.0881534190      2.6699456086
 H      0.0015476859     -2.6669372305      1.5333190504
 H     -0.7896271837     -2.1730158578      3.0329211249
 H     -2.4443111184     -0.8056816912      1.6581911578
 H     -2.5430032496     -2.5577788822      1.1973499663
 H     -1.3224904392     -2.1211548992     -0.6793272990
 H     -2.3689070758     -0.8977130407     -0.7406950560
 O     -0.0103226999      0.5407253044     -1.9021746495
 H     -0.8065027491      0.7008196969     -2.5278125186
 H      0.6071844089      1.2858649709     -2.0634611354
 O      1.5668111434      1.3044403316      0.2985911550
 H      2.0495742111      1.6529731527     -0.5205612363
 H      2.2928559748      0.9580985956      0.8527659293
 O      1.3636259392     -1.4474606039     -0.6670795170
 H      1.3998420719     -1.6203002580     -1.5927031315
 H      2.2573119073     -1.3594405775     -0.3042497216
 O     -1.2394684170      1.5544366226      0.5495800575
 H     -2.0468787658      1.8239867848      0.0666931818
 H     -0.7160671974      2.3042621078      0.7911410366
 O      4.0340989922     -1.9543900041      0.2384439291
 H      4.0508911229     -2.9071338292      0.2817475951
 H      4.6163340765     -1.6694504081     -0.4881715619
 O     -2.1447461540      0.6027843346     -3.5299162894
 H     -2.7493528522      0.3071675453     -2.8423969041
 H     -2.1491645521     -0.0299374221     -4.2108574723
 O     -3.4964055327      2.5072657554     -0.6974299134
 H     -4.1002709015      2.9257453409     -0.1125668039
 H     -3.3191441856      3.0162094349     -1.4823530155
 O      3.0647606379     -0.0902937620      2.0897876150
 H      3.5160825784     -0.7223024379      1.5011129363
 H      3.7211735880      0.1050016841      2.7737480844
 O     -3.8980418816     -0.1781322728     -1.4971781203
 H     -4.7943864227     -0.3940871962     -1.3016506683
 H     -3.8831410084      0.7686845450     -1.2691717102
 O      2.0541962268      2.3656128138     -2.3266024680
 H      1.8016157384      3.2887201575     -2.4307095505
 H      2.7306132156      2.1883301091     -2.9498604363
43
# ORCA AIMD Position Step 13, t=6.50 fs, E_Pot=-171013.04857417 kJ mol^-1, Unit is Angstrom
Zn     -0.0006238679     -0.0155820328      0.0070209830
 N      0.1461930744     -0.6309772398      1.9312741907
 C     -0.6319857383     -1.9045174405      1.9793547309
 C     -1.9133925267     -1.6547008890      1.2471381738
 N     -1.6139267334     -1.2813901570     -0.1476732199
 H      1.0866441949     -0.7347660379      2.2874126437
 H     -0.2584440529     -0.0985776738      2.6675366019
 H     -0.0019478814     -2.6654171203      1.5318035662
 H     -0.7861970164     -2.1710764463      3.0170745304
 H     -2.4391461649     -0.8078643564      1.6580473346
 H     -2.5380426730     -2.5394308914      1.2005687092
 H     -1.3241869888     -2.1240855591     -0.6794323999
 H     -2.3735438796     -0.8927178638     -0.7422384527
 O     -0.0097254492      0.5391572868     -1.8997313085
 H     -0.8142925785      0.7054020962     -2.5331223669
 H      0.6069881544      1.2862559871     -2.0551634750
 O      1.5681858473      1.3053504876      0.2989723995
 H      2.0516982505      1.6535300547     -0.5293458996
 H      2.2941504107      0.9577316293      0.8494922796
 O      1.3642565384     -1.4443780078     -0.6704149862
 H      1.3999573555     -1.6247026883     -1.5877591634
 H      2.2530286678     -1.3455460089     -0.3106927832
 O     -1.2388267836      1.5542512526      0.5495717675
 H     -2.0485906804      1.8262672121      0.0692889870
 H     -0.7155737325      2.2995050256      0.7882344353
 O      4.0376048691     -1.9542003382      0.2411847560
 H      4.0480286212     -2.9043964677      0.2682889503
 H      4.6088663054     -1.6675400649     -0.4944603457
 O     -2.1429886551      0.6056829513     -3.5307530072
 H     -2.7397501564      0.3127978360     -2.8450057753
 H     -2.1514217122     -0.0242173624     -4.2029709297
 O     -3.4960892817      2.5074441434     -0.6952221901
 H     -4.0980584829      2.9186708153     -0.1135346136
 H     -3.3218574965      3.0190612092     -1.4768484165
 O      3.0631534352     -0.0895096199      2.0898189324
 H      3.5144117846     -0.7200635429      1.4996715263
 H      3.7188121726      0.1017243759      2.7769374037
 O     -3.8995535437     -0.1813832985     -1.4984339402
 H     -4.7830248706     -0.3968356590     -1.2884670027
 H     -3.8816177738      0.7621193753     -1.2808071357
 O      2.0544827284      2.3627646755     -2.3298022618
 H      1.7987410867      3.2854959132     -2.4336691154
 H      2.7280234541      2.1901662642     -2.9473688317
43
# ORCA AIMD Position Step 14, t=7.00 fs, E_Pot=-171003.04265603 kJ mol^-1, Unit is Angstrom
Zn     -0.0007074343     -0.0167786066      0.0075867181
 N      0.1454815039     -0.6299626364      1.9323592547
 C     -0.6317544383     -1.9054777021      1.9786895375
 C     -1.9159142615     -1.6525798308      1.2477179804
 N     -1.6170882798     -1.2798148449     -0.1480327222
 H      1.0846438215     -0.7355445540      2.2851385203
 H     -0.2570393990     -0.1065989614      2.6658523890
 H     -0.0060194709     -2.6645247430      1.5294784664
 H     -0.7835777342     -2.1697533011      3.0016607873
 H     -2.4344247910     -0.8098524379      1.6589616490
 H     -2.5337094677     -2.5214664492      1.2051548670
 H     -1.3263245720     -2.1257049369     -0.6781190909
 H     -2.3780810612     -0.8883096894     -0.7413344967
 O     -0.0092659431      0.5376722270     -1.8974004984
 H     -0.8194301471      0.7092197893     -2.5365237550
 H      0.6063310978      1.2859245226     -2.0471310960
 O      1.5697345884      1.3063453984      0.2991306658
 H      2.0516136531      1.6530445566     -0.5352911413
 H      2.2949529990      0.9573820899      0.8467647079
 O      1.3648181843     -1.4412243423     -0.6735675619
 H      1.4005898835     -1.6296579952     -1.5858427073
 H      2.2497006167     -1.3319186851     -0.3173245050
 O     -1.2382527874      1.5538997340      0.5495277841
 H     -2.0498372845      1.8290860524      0.0721041259
 H     -0.7143369441      2.2969614870      0.7856782670
 O      4.0411711387     -1.9538926690      0.2438769410
 H      4.0452644371     -2.9027120324      0.2547771119
 H      4.6007965697     -1.6661562275     -0.4998186079
 O     -2.1411227055      0.6088786251     -3.5314377386
 H     -2.7315000117      0.3176702719     -2.8465877050
 H     -2.1536701864     -0.0218104855     -4.1986186860
 O     -3.4956345323      2.5074129135     -0.6930550845
 H     -4.0979205460      2.9135197674     -0.1128890460
 H     -3.3247221572      3.0231671995     -1.4720163390
 O      3.0616203825     -0.0887312992      2.0898841195
 H      3.5123972235     -0.7179517294      1.4982446047
 H      3.7155053652      0.0985406806      2.7796989997
 O     -3.9009457411     -0.1846018731     -1.4997437661
 H     -4.7746728818     -0.4014603966     -1.2747381462
 H     -3.8791196079      0.7565464591     -1.2921503414
 O      2.0546029722      2.3599468062     -2.3328695752
 H      1.7958455195      3.2821066129     -2.4366019540
 H      2.7281150028      2.1911850933     -2.9474057793
43
# ORCA AIMD Position Step 15, t=7.50 fs, E_Pot=-170998.97433667 kJ mol^-1, Unit is Angstrom
Zn     -0.0007994789     -0.0179684412      0.0081526709
 N      0.1447311121     -0.6291201040      1.9333716020
 C     -0.6312628917     -1.9062491833      1.9779839813
 C     -1.9184602773     -1.6504367213      1.2479844230
 N     -1.6200696769     -1.2782965628     -0.1485998741
 H      1.0840498040     -0.7372213673      2.2823821701
 H     -0.2573314386     -0.1115894011      2.6655706482
 H     -0.0104400308     -2.6644234576      1.5262297868
 H     -0.7819948446     -2.1693566963      2.9880860603
 H     -2.4304536908     -0.8111273065      1.6611208884
 H     -2.5308384337     -2.5052974034      1.2109651895
 H     -1.3289690660     -2.1258186166     -0.6753600141
 H     -2.3823506782     -0.8846423548     -0.7379660465
 O     -0.0089736299      0.5362969810     -1.8952323148
 H     -0.8215027052      0.7121206785     -2.5377197394
 H      0.6052283013      1.2848919508     -2.0395287041
 O      1.5714321808      1.3074169689      0.2990444006
 H      2.0492393405      1.6514554025     -0.5380854003
 H      2.2953641081      0.9570306452      0.8446957794
 O      1.3652824084     -1.4380431745     -0.6764704662
 H      1.4017216718     -1.6352037750     -1.5874377522
 H      2.2477215011     -1.3187210010     -0.3238907259
 O     -1.2377685736      1.5533777199      0.5494428371
 H     -2.0505387910      1.8323582112      0.0751217677
 H     -0.7122189652      2.2968737595      0.7835846590
 O      4.0447454134     -1.9534613483      0.2464779114
 H      4.0425975142     -2.9023384716      0.2414604464
 H      4.5922882467     -1.6652473951     -0.5041823533
 O     -2.1391538170      0.6123548663     -3.5319627812
 H     -2.7250830344      0.3215673982     -2.8466778896
 H     -2.1558534967     -0.0230895575     -4.1982529892
 O     -3.4950320498      2.5071608147     -0.6909746833
 H     -4.1001418487      2.9105253718     -0.1103530833
 H     -3.3276654137      3.0284968455     -1.4679971544
 O      3.0601833434     -0.0879705420      2.0899825070
 H      3.5100884386     -0.7160100387      1.4968684014
 H      3.7113082338      0.0954962325      2.7819827434
 O     -3.9021539887     -0.1877554214     -1.5011087620
 H     -4.7701480478     -0.4080718378     -1.2604192883
 H     -3.8757029382      0.7524755252     -1.3029406618
 O      2.0545371494      2.3572068402     -2.3357425988
 H      1.7929686994      3.2785876810     -2.4394555117
 H      2.7311838100      2.1912970030     -2.9502285024
43
# ORCA AIMD Position Step 16, t=8.00 fs, E_Pot=-171001.88838778 kJ mol^-1, Unit is Angstrom
Zn     -0.0009002060     -0.0191469628      0.0087166837
 N      0.1439552759     -0.6284746364      1.9342761760
 C     -0.6305224102     -1.9067965719      1.9771568912
 C     -1.9209372173     -1.6482237658      1.2479381274
 N     -1.6228589947     -1.2768405854     -0.1493625030
 H      1.0849410255     -0.7397607591      2.2792023630
 H     -0.2594853566     -0.1132758138      2.6670656330
 H     -0.0150430987     -2.6652111667      1.5219646746
 H     -0.7816062837     -2.1701522411      2.9774797206
 H     -2.4274227906     -0.8112790769      1.6646551404
 H     -2.5301705654     -2.4920651334      1.2178802551
 H     -1.3321496451     -2.1244177410     -0.6712334835
 H     -2.3863314750     -0.8817535375     -0.7322375243
 O     -0.0088632732      0.5350352029     -1.8932405952
 H     -0.8203614151      0.7140392398     -2.5366030489
 H      0.6037500985      1.2832435315     -2.0324326173
 O      1.5732604030      1.3085614620      0.2987107365
 H      2.0446564718      1.6487979581     -0.5377361274
 H      2.2955022459      0.9566532807      0.8433577824
 O      1.3656367935     -1.4348490515     -0.6791235609
 H      1.4033192971     -1.6413221097     -1.5924524044
 H      2.2473050406     -1.3059677508     -0.3302671813
 O     -1.2373750136      1.5526961481      0.5493180598
 H     -2.0506661996      1.8360262974      0.0783372586
 H     -0.7092649841      2.2991464427      0.7819471674
 O      4.0483114029     -1.9529137536      0.2489812442
 H      4.0399898462     -2.9032964591      0.2284333608
 H      4.5834787098     -1.6647047603     -0.5076397403
 O     -2.1370796563      0.6160852031     -3.5323575075
 H     -2.7206811852      0.3244119362     -2.8450672934
 H     -2.1579471193     -0.0277651395     -4.2015807730
 O     -3.4942891969      2.5066996331     -0.6889895671
 H     -4.1046306600      2.9095999950     -0.1060000768
 H     -3.3306762153      3.0349571469     -1.4647301119
 O      3.0588409829     -0.0872307627      2.0901095199
 H      3.5075247483     -0.7142611094      1.4955596143
 H      3.7063184950      0.0926151670      2.7838434717
 O     -3.9031681610     -0.1908490585     -1.5025330137
 H     -4.7695063062     -0.4166146188     -1.2454596240
 H     -3.8714491200      0.7501639160     -1.3130829751
 O      2.0542972178      2.3545513979     -2.3384215780
 H      1.7901244278      3.2749514082     -2.4422232576
 H      2.7370327906      2.1905621282     -2.9556467323
43
# ORCA AIMD Position Step 17, t=8.50 fs, E_Pot=-171009.98610150 kJ mol^-1, Unit is Angstrom
Zn     -0.0010095402     -0.0203085635      0.0092761719
 N      0.1431639909     -0.6280342560      1.9350643973
 C     -0.6295502387     -1.9070945389      1.9761451019
 C     -1.9232644923     -1.6459018201      1.2475884874
 N     -1.6254427999     -1.2754476666     -0.1502917154
 H      1.0872295224     -0.7430823848      2.2756399946
 H     -0.2634285993     -0.1116861423      2.6703479418
 H     -0.0196910640     -2.6669175959      1.5166520727
 H     -0.7825112923     -2.1723364701      2.9707059980
 H     -2.4254388372     -0.8100375610      1.6696058208
 H     -2.5322843107     -2.4826821212      1.2257666937
 H     -1.3358330363     -2.1216552495     -0.6659306296
 H     -2.3900921790     -0.8796196999     -0.7243717821
 O     -0.0089412492      0.5338860350     -1.8914321975
 H     -0.8160399105      0.7149490232     -2.5331997939
 H      0.6020230387      1.2811227767     -2.0259253607
 O      1.5751908460      1.3097674857      0.2981435080
 H      2.0380981238      1.6452039830     -0.5344899087
 H      2.2954792393      0.9562313597      0.8428086263
 O      1.3658799903     -1.4316654819     -0.6815521491
 H      1.4053289040     -1.6478712184     -1.6002760175
 H      2.2484948223     -1.2937021506     -0.3363938859
 O     -1.2370593744      1.5518837188      0.5491609652
 H     -2.0502274104      1.8400298273      0.0817238267
 H     -0.7057051415      2.3034023907      0.7806804722
 O      4.0518461806     -1.9522731123      0.2513827413
 H      4.0374072448     -2.9053937281      0.2158065509
 H      4.5745627005     -1.6643883113     -0.5103505189
 O     -2.1349148688      0.6199992619     -3.5326707900
 H     -2.7182494881      0.3262201056     -2.8418253970
 H     -2.1599236301     -0.0350027041     -4.2077237786
 O     -3.4934341099      2.5060621517     -0.6870976901
 H     -4.1109457624      2.9104251899     -0.1002346438
 H     -3.3337669171      3.0423530303     -1.4620288344
 O      3.0575882206     -0.0865163936      2.0902563628
 H      3.5047566503     -0.7127324620      1.4943327479
 H      3.7007052701      0.0899364144      2.7853991664
 O     -3.9040153699     -0.1938842329     -1.5040051641
 H     -4.7721500044     -0.4268081564     -1.2300087804
 H     -3.8664913859      0.7496429901     -1.3225092018
 O      2.0539220083      2.3519815376     -2.3409282082
 H      1.7873350337      3.2712276753     -2.4449083508
 H      2.7450256657      2.1891559985     -2.9630783911
43
# ORCA AIMD Position Step 18, t=9.00 fs, E_Pot=-171019.95367017 kJ mol^-1, Unit is Angstrom
Zn     -0.0011295771     -0.0214718638      0.0098403250
 N      0.1423457181     -0.6277822163      1.9357703650
 C     -0.6283472967     -1.9071362468      1.9748916782
 C     -1.9254350900     -1.6433993361      1.2469441661
 N     -1.6278613160     -1.2740842949     -0.1513647107
 H      1.0907313482     -0.7471424494      2.2716407275
 H     -0.2689531179     -0.1070843565      2.6751489639
 H     -0.0243864814     -2.6695401716      1.5102079336
 H     -0.7847578110     -2.1760568595      2.9680959635
 H     -2.4244769287     -0.8072698623      1.6760289030
 H     -2.5375469147     -2.4774948367      1.2346642025
 H     -1.3400103412     -2.1177675390     -0.6596219728
 H     -2.3938647061     -0.8781192557     -0.7145105504
 O     -0.0092083116      0.5328205145     -1.8897692052
 H     -0.8086312156      0.7148763473     -2.5275744450
 H      0.6001804139      1.2786694140     -2.0199546607
 O      1.5772286131      1.3110424824      0.2973599909
 H      2.0297897854      1.6408162985     -0.5287464403
 H      2.2953871133      0.9557471581      0.8430779284
 O      1.3660265370     -1.4284539396     -0.6838500503
 H      1.4077259052     -1.6547500426     -1.6101040131
 H      2.2511946608     -1.2817373974     -0.3424071361
 O     -1.2367919572      1.5509640105      0.5489802716
 H     -2.0492528718      1.8443956959      0.0853087020
 H     -0.7018257810      2.3091566276      0.7796183430
 O      4.0553979350     -1.9515609295      0.2537307197
 H      4.0347685799     -2.9083142448      0.2034407544
 H      4.5655799382     -1.6641321863     -0.5125833785
 O     -2.1326425833      0.6240824964     -3.5329636102
 H     -2.7174895289      0.3271327886     -2.8372060139
 H     -2.1617910688     -0.0438030751     -4.2156028325
 O     -3.4924909702      2.5052816885     -0.6852495190
 H     -4.1185413884      2.9125486208     -0.0935625493
 H     -3.3370320286      3.0505738335     -1.4595596548
 O      3.0563905178     -0.0858173211      2.0904141056
 H      3.5017821918     -0.7114232831      1.4931755799
 H      3.6945676178      0.0874529223      2.7868492122
 O     -3.9047674014     -0.1969220893     -1.5055322732
 H     -4.7770701739     -0.4384200287     -1.2140604727
 H     -3.8608964264      0.7507173996     -1.3313727720
 O      2.0534593835      2.3494398376     -2.3433511136
 H      1.7845691301      3.2673815785     -2.4475797563
 H      2.7544163017      2.1872922237     -2.9718559080
43
# ORCA AIMD Position Step 19, t=9.50 fs, E_Pot=-171028.16491159 kJ mol^-1, Unit is Angstrom
Zn     -0.0012611183     -0.0226413063      0.0104116548
 N      0.1414942515     -0.6276972333      1.9364383462
 C     -0.6269284207     -1.9069223710      1.9733825193
 C     -1.9274428241     -1.6406939692      1.2460217034
 N     -1.6301211816     -1.2727293358     -0.1525372001
 H      1.0951313629     -0.7518370954      2.2671747031
 H     -0.2756450919     -0.0999356366      2.6808995139
 H     -0.0291206697     -2.6729969887      1.5026603196
 H     -0.7883156488     -2.1813359558      2.9696465515
 H     -2.4244586010     -0.8030122840      1.6838433731
 H     -2.5460115560     -2.4765527142      1.2445338392
 H     -1.3445859471     -2.1131416574     -0.6526122036
 H     -2.3979102971     -0.8771173833     -0.7029379476
 O     -0.0096580592      0.5318212696     -1.8882301232
 H     -0.7984031966      0.7138615358     -2.5199233536
 H      0.5984068572      1.2760715932     -2.0145528421
 O      1.5793498225      1.3123730720      0.2963985681
 H      2.0201522674      1.6359049035     -0.5211557596
 H      2.2952886980      0.9552007699      0.8441900894
 O      1.3660965992     -1.4252167368     -0.6860879088
 H      1.4104564192     -1.6617165993     -1.6208695628
 H      2.2551632539     -1.2700687729     -0.3484250712
 O     -1.2365409425      1.5499760986      0.5487890554
 H     -2.0478014567      1.8491087535      0.0890643664
 H     -0.6980250069      2.3157743330      0.7785849146
 O      4.0589700627     -1.9508134788      0.2560444949
 H      4.0320325497     -2.9116112584      0.1913713206
 H      4.5566944137     -1.6637645156     -0.5146017611
 O     -2.1302819534      0.6282629365     -3.5332872702
 H     -2.7179937589      0.3273298527     -2.8316853172
 H     -2.1635258010     -0.0529913428     -4.2239853790
 O     -3.4915007940      2.5044054884     -0.6834158351
 H     -4.1266861484      2.9154462137     -0.0866579580
 H     -3.3405369946      3.0593794492     -1.4569719687
 O      3.0552269892     -0.0851325632      2.0905698134
 H      3.4986350157     -0.7103556026      1.4920921516
 H      3.6880992351      0.0851979696      2.7884067274
 O     -3.9054980664     -0.1999812939     -1.5070953158
 H     -4.7830069814     -0.4510038324     -1.1979111921
 H     -3.8548146149      0.7530305950     -1.3397195059
 O      2.0529680457      2.3468983931     -2.3457532437
 H      1.7818314961      3.2634341024     -2.4502799443
 H      2.7642561244      2.1852209828     -2.9811373580
43
# ORCA AIMD Position Step 20, t=10.00 fs, E_Pot=-171031.95418152 kJ mol^-1, Unit is Angstrom
Zn     -0.0014033118     -0.0238073251      0.0109859218
 N      0.1406116401     -0.6277518361      1.9371165812
 C     -0.6253307941     -1.9064706342      1.9716548072
 C     -1.9292891427     -1.6378206662      1.2448567221
 N     -1.6322025242     -1.2713734569     -0.1537415076
 H      1.0999824808     -0.7569844110      2.2622613296
 H     -0.2829007794     -0.0909308581      2.6867959802
 H     -0.0338695638     -2.6770993817      1.4941868147
 H     -0.7930258795     -2.1880117013      2.9748729360
 H     -2.4252253778     -0.7975132525      1.6927837078
 H     -2.5572896189     -2.4794447514      1.2552123750
 H     -1.3493710023     -2.1083285248     -0.6453553136
 H     -2.4024987139     -0.8764550996     -0.6901302548
 O     -0.0102677808      0.5308802027     -1.8868033623
 H     -0.7859309142      0.7120002120     -2.5106721483
 H      0.5969224524      1.2735568044     -2.0098109274
 O      1.5814987346      1.3137226756      0.2953269691
 H      2.0098564555      1.6308941753     -0.5127101171
 H      2.2952156700      0.9546159276      0.8461271149
 O      1.3661170691     -1.4219950184     -0.6883084698
 H      1.4134273875     -1.6684194351     -1.6313521070
 H      2.2599962203     -1.2588562211     -0.3545328662
 O     -1.2362751203      1.5489725704      0.5486035430
 H     -2.0459754603      1.8540980458      0.0929046112
 H     -0.6947565176      2.3225106776      0.7774164887
 O      4.0625225999     -1.9500790794      0.2583150716
 H      4.0292005001     -2.9147476208      0.1797940967
 H      4.5481731448     -1.6631183118     -0.5166518099
 O     -2.1278869990      0.6324193410     -3.5336769074
 H     -2.7192530876      0.3270357364     -2.8259242354
 H     -2.1650792558     -0.0613489573     -4.2316247397
 O     -3.4905175417      2.5034931404     -0.6815902564
 H     -4.1345395432      2.9185526756     -0.0802765100
 H     -3.3443000055      3.0684002588     -1.4539362973
 O      3.0540897289     -0.0844693185      2.0907076081
 H      3.4953895416     -0.7095634974      1.4911020095
 H      3.6815827317      0.0832310670      2.7902784261
 O     -3.9062729732     -0.2030376454     -1.5086513937
 H     -4.7885982060     -0.4639216864     -1.1821234207
 H     -3.8484918120      0.7560629545     -1.3475007248
 O      2.0525111620      2.3443598920     -2.3481670056
 H      1.7791609996      3.2594631258     -2.4530224907
 H      2.7734994433      2.1832053176     -2.9899956894
43
# ORCA AIMD Position Step 21, t=10.50 fs, E_Pot=-171030.52971983 kJ mol^-1, Unit is Angstrom
Zn     -0.0015556898     -0.0249654690      0.0115613997
 N      0.1396967912     -0.6279148868      1.9378580743
 C     -0.6235922360     -1.9058127937      1.9697676931
 C     -1.9310116465     -1.6348249327      1.2434915108
 N     -1.6340986630     -1.2699985690     -0.1549099677
 H      1.1048218060     -0.7624059847      2.2569117009
 H     -0.2901082160     -0.0808007066      2.6920222700
 H     -0.0386620144     -2.6816135118      1.4849927781
 H     -0.7986582378     -2.1958265538      2.9828884635
 H     -2.4265511696     -0.7911431874      1.7025310029
 H     -2.5707165789     -2.4853325509      1.2665506987
 H     -1.3541730299     -2.1039239696     -0.6383119936
 H     -2.4079354987     -0.8759481061     -0.6765517551
 O     -0.0110013695      0.5299825738     -1.8854598250
 H     -0.7719745512      0.7094422153     -2.5003889703
 H      0.5959286534      1.2713223158     -2.0057790666
 O      1.5836236835      1.3150539181      0.2942259295
 H      1.9996490389      1.6262683068     -0.5045981209
 H      2.2951649327      0.9540333093      0.8488332366
 O      1.3661199586     -1.4188137558     -0.6905559987
 H      1.4165520947     -1.6745544655     -1.6404985055
 H      2.2652307845     -1.2482207709     -0.3608550291
 O     -1.2359641099      1.5479987349      0.5484381659
 H     -2.0438943768      1.8593085993      0.0967488284
 H     -0.6924039420      2.3286988894      0.7759704345
 O      4.0660322844     -1.9494005057      0.2605415807
 H      4.0262729051     -2.9172197670      0.1688568576
 H      4.5402142071     -1.6620435953     -0.5189597738
 O     -2.1255035524      0.6364592699     -3.5341539286
 H     -2.7207297425      0.3264981317     -2.8205873920
 H     -2.1664119223     -0.0678913050     -4.2375294926
 O     -3.4895864731      2.5025970704     -0.6797620814
 H     -4.1413845976      2.9213659760     -0.0750454891
 H     -3.3483363207      3.0773082824     -1.4501510465
 O      3.0529663179     -0.0838312645      2.0908131664
 H      3.4921088849     -0.7090699369      1.4902232912
 H      3.6752577815      0.0815911056      2.7926570660
 O     -3.9071501505     -0.2060746617     -1.5101650800
 H     -4.7926642996     -0.4766094354     -1.1671777619
 H     -3.8421590107      0.7592322812     -1.3547067221
 O      2.0521411147      2.3418180362     -2.3506274447
 H      1.7765810926      3.2555343991     -2.4558304687
 H      2.7812827362      2.1814598973     -2.9976722090
43
# ORCA AIMD Position Step 22, t=11.00 fs, E_Pot=-171024.95744941 kJ mol^-1, Unit is Angstrom
Zn     -0.0017180591     -0.0261144254      0.0121379105
 N      0.1387480410     -0.6281575064      1.9387111214
 C     -0.6217505510     -1.9049887016      1.9677910440
 C     -1.9326683681     -1.6317569055      1.2419729976
 N     -1.6358117073     -1.2685826831     -0.1559793876
 H      1.1092178233     -0.7679343018      2.2511402886
 H     -0.2967121775     -0.0702284466      2.6958523022
 H     -0.0435590527     -2.6862794682      1.4753001855
 H     -0.8049405893     -2.2044680360      2.9925940554
 H     -2.4281779234     -0.7843389730      1.7127366237
 H     -2.5854776233     -2.4931489810      1.2783963560
 H     -1.3588152316     -2.1005067524     -0.6319153506
 H     -2.4145155945     -0.8754169267     -0.6626260824
 O     -0.0118083375      0.5291104727     -1.8841560900
 H     -0.7574796980      0.7063878359     -2.4897916938
 H      0.5955891602      1.2695144454     -2.0024783957
 O      1.5856773943      1.3163293542      0.2931832071
 H      1.9903013679      1.6225369999     -0.4981066453
 H      2.2951024873      0.9535099706      0.8522201964
 O      1.3661381526     -1.4156858939     -0.6928680938
 H      1.4197504133     -1.6798843523     -1.6474971125
 H      2.2704042935     -1.2382559812     -0.3675219761
 O     -1.2355819098      1.5470903419      0.5483045078
 H     -2.0416845642      1.8646936912      0.1005216229
 H     -0.6912493183      2.3338028561      0.7741428937
 O      4.0694878914     -1.9488118697      0.2627254075
 H      4.0232506790     -2.9186104323      0.1586749201
 H      4.5329446983     -1.6604188521     -0.5216932401
 O     -2.1231684316      0.6403176203     -3.5347273320
 H     -2.7219280492      0.3259555060     -2.8162670302
 H     -2.1674917124     -0.0719048332     -4.2410027454
 O     -3.4887422580      2.5017595189     -0.6779206398
 H     -4.1466768511      2.9234832552     -0.0714208428
 H     -3.3526471559      3.0858325813     -1.4453799024
 O      3.0518438458     -0.0832196085      2.0908752042
 H      3.4888470564     -0.7088885392      1.4894768340
 H      3.6693036183      0.0802959452      2.7956908019
 O     -3.9081733312     -0.2090802231     -1.5116095733
 H     -4.7943029879     -0.4886068359     -1.1534495876
 H     -3.8360252762      0.7619694172     -1.3613428262
 O      2.0518965585      2.3392630784     -2.3531650285
 H      1.7741029233      3.2517022914     -2.4587290905
 H      2.7869701253      2.1801388547     -3.0036138321
43
# ORCA AIMD Position Step 23, t=11.50 fs, E_Pot=-171017.56767076 kJ mol^-1, Unit is Angstrom
Zn     -0.0018916538     -0.0272631289      0.0127204099
 N      0.1377573112     -0.6284582102      1.9397206198
 C     -0.6198293516     -1.9040346663      1.9657802529
 C     -1.9343359795     -1.6286421192      1.2403393342
 N     -1.6373622678     -1.2670938726     -0.1569028771
 H      1.1128329901     -0.7734580752      2.2449295951
 H     -0.3022953201     -0.0597244505      2.6977277055
 H     -0.0486716709     -2.6908626619      1.4652639618
 H     -0.8116336028     -2.2136723545      3.0029188942
 H     -2.4298562963     -0.7775035774      1.7231192630
 H     -2.6008359408     -2.5018357158      1.2906732708
 H     -1.3631924700     -2.0985496441     -0.6264915275
 H     -2.4225289637     -0.8747101440     -0.6486103708
 O     -0.0126300280      0.5282389906     -1.8828275351
 H     -0.7434572712      0.7030589933     -2.4796657292
 H      0.5960145774      1.2682012341     -1.9998875058
 O      1.5876346724      1.3175234839      0.2922761996
 H      1.9824628944      1.6201506019     -0.4944198472
 H      2.2949688081      0.9531142053      0.8561997304
 O      1.3662025486     -1.4125932039     -0.6952896456
 H      1.4229722380     -1.6842754617     -1.6518402932
 H      2.2751362799     -1.2289604219     -0.3746966801
 O     -1.2351058308      1.5462665444      0.5482099934
 H     -2.0394540029      1.8702484398      0.1041811853
 H     -0.6914561508      2.3374732577      0.7718610122
 O      4.0729124572     -1.9483327341      0.2648823612
 H      4.0201120720     -2.9186263341      0.1492659310
 H      4.5263697740     -1.6581450247     -0.5249561324
 O     -2.1208923098      0.6439811617     -3.5354009784
 H     -2.7224433434      0.3256135049     -2.8134110400
 H     -2.1682982987     -0.0729579021     -4.2416467048
 O     -3.4880029548      2.5010055083     -0.6760435729
 H     -4.1500888069      2.9246235223     -0.0696576528
 H     -3.3572462309      3.0938302078     -1.4394352563
 O      3.0507033281     -0.0826293206      2.0908869589
 H      3.4856267883     -0.7090241194      1.4888839495
 H      3.6637842764      0.0793329572      2.7994842026
 O     -3.9093784283     -0.2120677337     -1.5129768839
 H     -4.7929099624     -0.4996436981     -1.1411108585
 H     -3.8302308027      0.7637881409     -1.3674613280
 O      2.0518006740      2.3366662906     -2.3558212361
 H      1.7717102720      3.2479809160     -2.4617622573
 H      2.7901935651      2.1793263180     -3.0075122668
43
# ORCA AIMD Position Step 24, t=12.00 fs, E_Pot=-171010.96351116 kJ mol^-1, Unit is Angstrom
Zn     -0.0020802048     -0.0284355238      0.0133215407
 N      0.1367046029     -0.6288067009      1.9409347807
 C     -0.6178273418     -1.9029726330      1.9637593062
 C     -1.9361092283     -1.6254615270      1.2386083079
 N     -1.6387923179     -1.2654851457     -0.1576539627
 H      1.1154377221     -0.7789489421      2.2381955797
 H     -0.3065885126     -0.0495656849      2.6972332880
 H     -0.0541765962     -2.6951839500      1.4549085180
 H     -0.8185890758     -2.2233057647      3.0129845660
 H     -2.4313717027     -0.7709398453      1.7335317092
 H     -2.6162925632     -2.5105113737      1.3034478637
 H     -1.3673061700     -2.0983841476     -0.6222285812
 H     -2.4322937850     -0.8737180170     -0.6345131409
 O     -0.0134059033      0.5273338877     -1.8813842658
 H     -0.7308896804      0.6996658761     -2.4708011211
 H      0.5972733545      1.2673695488     -1.9979531246
 O      1.5895038427      1.3186307632      0.2915583851
 H      1.9765638839      1.6194457845     -0.4944685443
 H      2.2946876628      0.9529257237      0.8607179095
 O      1.3663418689     -1.4094744935     -0.6978864512
 H      1.4262142386     -1.6876951944     -1.6532733631
 H      2.2791634179     -1.2202104284     -0.3826080804
 O     -1.2345127430      1.5455284101      0.5481583289
 H     -2.0372752700      1.8760340480      0.1077346337
 H     -0.6931020384      2.3395346690      0.7690619638
 O      4.0763771468     -1.9479678097      0.2670504166
 H      4.0167937906     -2.9170762009      0.1405280698
 H      4.5203610714     -1.6551229272     -0.5288045077
 O     -2.1186506443      0.6474982650     -3.5361814064
 H     -2.7219622582      0.3256410639     -2.8123284305
 H     -2.1688187524     -0.0708109793     -4.2392719577
 O     -3.4873697535      2.5003413594     -0.6740874254
 H     -4.1514759026      2.9246066424     -0.0698515910
 H     -3.3621849786      3.1013146021     -1.4321318774
 O      3.0495151022     -0.0820471856      2.0908457033
 H      3.4824271273     -0.7094816296      1.4884691411
 H      3.6586279183      0.0786620179      2.8041211466
 O     -3.9108044339     -0.2150895038     -1.5142822670
 H     -4.7880800732     -0.5096668205     -1.1301046045
 H     -3.8248280693      0.7642967011     -1.3731726413
 O      2.0518650332      2.3339681228     -2.3586631899
 H      1.7693520518      3.2443276207     -2.4650072543
 H      2.7907948139      2.1790469472     -3.0092587414
43
# ORCA AIMD Position Step 25, t=12.50 fs, E_Pot=-171007.71176862 kJ mol^-1, Unit is Angstrom
Zn     -0.0022756748     -0.0295816897      0.0139160312
 N      0.1356373790     -0.6291774914      1.9423127503
 C     -0.6158701252     -1.9018887017      1.9618699943
 C     -1.9379619754     -1.6223900522      1.2369073257
 N     -1.6400577312     -1.2638190052     -0.1581724853
 H      1.1167241951     -0.7840474068      2.2312999051
 H     -0.3091479385     -0.0405618096      2.6941373449
 H     -0.0598896144     -2.6988023320      1.4449035119
 H     -0.8252341858     -2.2326501093      3.0213993228
 H     -2.4324410566     -0.7653223984      1.7431844967
 H     -2.6304571904     -2.5178714361      1.3159657569
 H     -1.3709703561     -2.1001597914     -0.6194733688
 H     -2.4433849033     -0.8724622772     -0.6211527957
 O     -0.0140217041      0.5264219263     -1.8798259954
 H     -0.7215654668      0.6966384746     -2.4645752381
 H      0.5992900920      1.2669855218     -1.9967390576
 O      1.5911903572      1.3195868393      0.2911003003
 H      1.9731685969      1.6206211257     -0.4987184958
 H      2.2941974083      0.9530461478      0.8654172985
 O      1.3665710606     -1.4064624641     -0.7005492028
 H      1.4292725682     -1.6899533231     -1.6516784159
 H      2.2820515251     -1.2124170632     -0.3909454950
 O     -1.2338244746      1.5449149958      0.5481532931
 H     -2.0353448513      1.8817351370      0.1109713987
 H     -0.6960528451      2.3398322205      0.7659044698
 O      4.0797386302     -1.9477341378      0.2691256442
 H      4.0134394501     -2.9139958808      0.1328978109
 H      4.5151167032     -1.6514825320     -0.5329539976
 O     -2.1165530506      0.6507121127     -3.5370197218
 H     -2.7203053722      0.3261657207     -2.8132621424
 H     -2.1690090353     -0.0655722922     -4.2340682293
 O     -3.4868750999      2.4998049273     -0.6721354830
 H     -4.1507692231      2.9233507804     -0.0719277928
 H     -3.3671780647      3.1078944563     -1.4238432374
 O      3.0483288867     -0.0814959339      2.0907561058
 H      3.4794262843     -0.7102315433      1.4882916419
 H      3.6540176409      0.0782664418      2.8093099545
 O     -3.9123865122     -0.2180084836     -1.5154660424
 H     -4.7799580659     -0.5180836807     -1.1209679067
 H     -3.8201901061      0.7631741998     -1.3782111289
 O      2.0520848938      2.3312827383     -2.3615685892
 H      1.7671198685      3.2409163072     -2.4683283664
 H      2.7887777746      2.1792910506     -3.0088086832
43
# ORCA AIMD Position Step 26, t=13.00 fs, E_Pot=-171008.44867927 kJ mol^-1, Unit is Angstrom
Zn     -0.0024836860     -0.0307349138      0.0145212795
 N      0.1345285892     -0.6295771934      1.9438894639
 C     -0.6139410219     -1.9007878114      1.9600994223
 C     -1.9399829042     -1.6193696546      1.2352385917
 N     -1.6412182683     -1.2620525359     -0.1584643843
 H      1.1166529768     -0.7888002427      2.2241421913
 H     -0.3099173229     -0.0326908539      2.6882976635
 H     -0.0659983282     -2.7016031622      1.4351628075
 H     -0.8315162378     -2.2417095164      3.0276408584
 H     -2.4329244312     -0.7607986440      1.7520549629
 H     -2.6431457617     -2.5233839027      1.3283759064
 H     -1.3743662579     -2.1038130180     -0.6181607605
 H     -2.4559454905     -0.8709654614     -0.6082684705
 O     -0.0144266258      0.5254721211     -1.8780585781
 H     -0.7161975503      0.6941215805     -2.4616057331
 H      0.6020247759      1.2668955710     -1.9961791048
 O      1.5927484024      1.3204190579      0.2908866792
 H      1.9721557164      1.6236151188     -0.5070878091
 H      2.2934229827      0.9535698411      0.8702580646
 O      1.3669097537     -1.4034659440     -0.7033429966
 H      1.4321780613     -1.6911594943     -1.6472328330
 H      2.2837420251     -1.2053568110     -0.3999224169
 O     -1.2330273569      1.5444057347      0.5481922896
 H     -2.0336853302      1.8874345494      0.1139402729
 H     -0.7002028343      2.3384873016      0.7623858229
 O      4.0831023429     -1.9476138594      0.2711535433
 H      4.0099505304     -2.9094250077      0.1261846941
 H      4.5103778452     -1.6471637602     -0.5373159486
 O     -2.1145433312      0.6537299128     -3.5379175502
 H     -2.7173577451      0.3272777855     -2.8162580044
 H     -2.1688610062     -0.0573766411     -4.2262516424
 O     -3.4864991246      2.4993776991     -0.6701351940
 H     -4.1481368537      2.9208560027     -0.0756929920
 H     -3.3722703640      3.1137712619     -1.4145054485
 O      3.0471137438     -0.0809566542      2.0906235980
 H      3.4765733450     -0.7112761721      1.4883901678
 H      3.6497155169      0.0780700728      2.8150235258
 O     -3.9141498801     -0.2209033619     -1.5165676754
 H     -4.7685473013     -0.5250965982     -1.1133706420
 H     -3.8162885786      0.7602366246     -1.3826956310
 O      2.0524496486      2.3285359761     -2.3646080274
 H      1.7649338998      3.2376475155     -2.4718131467
 H      2.7843585859      2.1799854850     -3.0063892665
43
# ORCA AIMD Position Step 27, t=13.50 fs, E_Pot=-171011.80951431 kJ mol^-1, Unit is Angstrom
Zn     -0.0027048443     -0.0318975649      0.0151386086
 N      0.1333802270     -0.6300096583      1.9456517542
 C     -0.6120766172     -1.8996982468      1.9584751244
 C     -1.9421995141     -1.6164193635      1.2336473232
 N     -1.6423027101     -1.2601968741     -0.1585339480
 H      1.1152409367     -0.7931345192      2.2168251156
 H     -0.3088590663     -0.0260582775      2.6797870241
 H     -0.0725109243     -2.7034019338      1.4258435078
 H     -0.8372308379     -2.2502744798      3.0311140828
 H     -2.4326899021     -0.7575945082      1.7598961343
 H     -2.6538982869     -2.5264683784      1.3404896223
 H     -1.3776475446     -2.1090295899     -0.6181918128
 H     -2.4696914108     -0.8693498917     -0.5958920860
 O     -0.0145761399      0.5244871142     -1.8760501936
 H     -0.7153427410      0.6922455846     -2.4623583128
 H      0.6053317152      1.2669050187     -1.9962477430
 O      1.5942011792      1.3211421416      0.2908798104
 H      1.9732451521      1.6281296624     -0.5188366722
 H      2.2923179671      0.9545879627      0.8750770649
 O      1.3673654238     -1.4004721618     -0.7062504456
 H      1.4348852499     -1.6914299764     -1.6403674493
 H      2.2841980079     -1.1989964556     -0.4094866402
 O     -1.2321333721      1.5439891742      0.5482700346
 H     -2.0323483781      1.8930463078      0.1166120779
 H     -0.7052749570      2.3357491717      0.7586254644
 O      4.0864853298     -1.9475864558      0.2731208948
 H      4.0063098239     -2.9036052260      0.1203902181
 H      4.5060081186     -1.6422249564     -0.5416320477
 O     -2.1126144683      0.6565888346     -3.5388478113
 H     -2.7131557239      0.3290108021     -2.8212059890
 H     -2.1683634369     -0.0467114162     -4.2164027745
 O     -3.4862270857      2.4990459937     -0.6680902605
 H     -4.1439166957      2.9172448919     -0.0807557012
 H     -3.3773526480      3.1190318358     -1.4043590067
 O      3.0458735141     -0.0804251029      2.0904590134
 H      3.4738965835     -0.7125964095      1.4888152531
 H      3.6455665223      0.0779984526      2.8210435474
 O     -3.9160648527     -0.2237753826     -1.5176022665
 H     -4.7542939079     -0.5307765175     -1.1071244185
 H     -3.8131988804      0.7554420569     -1.3865916485
 O      2.0529311162      2.3257294940     -2.3677639282
 H      1.7627737388      3.2344993106     -2.4754521902
 H      2.7779971960      2.1810047013     -3.0024034406
43
# ORCA AIMD Position Step 28, t=14.00 fs, E_Pot=-171014.87711655 kJ mol^-1, Unit is Angstrom
Zn     -0.0029377850     -0.0330612999      0.0157634818
 N      0.1322059662     -0.6304817161      1.9475562434
 C     -0.6103305908     -1.8986523322      1.9570281070
 C     -1.9446056056     -1.6135799935      1.2321889979
 N     -1.6433344268     -1.2582889979     -0.1583979468
 H      1.1126312430     -0.7969626355      2.2095370334
 H     -0.3060646723     -0.0206903998      2.6689335733
 H     -0.0793408352     -2.7040462358      1.4171502090
 H     -0.8421566203     -2.2581008660      3.0313771827
 H     -2.4316563063     -0.7558655513      1.7664458952
 H     -2.6622813977     -2.5266871194      1.3520141084
 H     -1.3809944260     -2.1152568835     -0.6193591992
 H     -2.4840850030     -0.8678049315     -0.5841135847
 O     -0.0144606228      0.5234890431     -1.8738188451
 H     -0.7189486768      0.6910203549     -2.4667923512
 H      0.6089854855      1.2667816537     -1.9969177264
 O      1.5955691891      1.3217755701      0.2910134769
 H      1.9759478133      1.6336593272     -0.5326815485
 H      2.2908727035      0.9561689273      0.8796797252
 O      1.3679332533     -1.3974923586     -0.7092147209
 H      1.4373347517     -1.6909678599     -1.6318346142
 H      2.2835009361     -1.1933258394     -0.4194488037
 O     -1.2311711260      1.5436490226      0.5483772244
 H     -2.0313683462      1.8984182152      0.1189474429
 H     -0.7108432520      2.3320483743      0.7548156102
 O      4.0898751331     -1.9476221493      0.2749966845
 H      4.0025239028     -2.8969641494      0.1155363350
 H      4.5019002884     -1.6367910309     -0.5455730692
 O     -2.1107677954      0.6593211518     -3.5397671361
 H     -2.7079048255      0.3313270466     -2.8277836574
 H     -2.1675208241     -0.0344388673     -4.2054727616
 O     -3.4860363661      2.4987882225     -0.6660280872
 H     -4.1386671057      2.9127824130     -0.0865108082
 H     -3.3822521549      3.1237812519     -1.3938214176
 O      3.0446252754     -0.0799017516      2.0902770168
 H      3.4714448677     -0.7141561825      1.4896135970
 H      3.6414280076      0.0779714918      2.8270614263
 O     -3.9180688275     -0.2266010150     -1.5185854578
 H     -4.7380583832     -0.5352707111     -1.1019486669
 H     -3.8109889959      0.7489388367     -1.3898238813
 O      2.0534824306      2.3228947195     -2.3709778108
 H      1.7606386970      3.2314626835     -2.4791938298
 H      2.7704427896      2.1821623245     -2.9974872407
43
# ORCA AIMD Position Step 29, t=14.50 fs, E_Pot=-171014.68732329 kJ mol^-1, Unit is Angstrom
Zn     -0.0031817419     -0.0342211263      0.0163929114
 N      0.1310179663     -0.6310083323      1.9495503108
 C     -0.6087493446     -1.8976722210      1.9557726258
 C     -1.9471870665     -1.6108785998      1.2309074252
 N     -1.6443433186     -1.2563662597     -0.1580837658
 H      1.1090785526     -0.8002404942      2.2024571618
 H     -0.3017577234     -0.0164331731      2.6562319500
 H     -0.0863817740     -2.7034552329      1.4092090123
 H     -0.8461353351     -2.2650230849      3.0282107170
 H     -2.4298014234     -0.7556377756      1.7715419335
 H     -2.6680374034     -2.5238028658      1.3627112858
 H     -1.3846226730     -2.1218347902     -0.6213770767
 H     -2.4985433564     -0.8665404042     -0.5729509176
 O     -0.0141097234      0.5225058093     -1.8714095475
 H     -0.7263234276      0.6903118095     -2.4743441787
 H      0.6127403698      1.2662835984     -1.9981574954
 O      1.5968807080      1.3223473152      0.2912070047
 H      1.9796857294      1.6396369805     -0.5471771387
 H      2.2891086294      0.9583587456      0.8839146207
 O      1.3686007707     -1.3945257437     -0.7121756566
 H      1.4394896777     -1.6900675934     -1.6226105501
 H      2.2818614568     -1.1882760254     -0.4296005514
 O     -1.2301739977      1.5433600860      0.5485019295
 H     -2.0307430792      1.9034060560      0.1209320308
 H     -0.7164158061      2.3279401286      0.7511645941
 O      4.0932694315     -1.9476836558      0.2767589061
 H      3.9985797649     -2.8900209564      0.1115879421
 H      4.4979404067     -1.6309866937     -0.5488298345
 O     -2.1089891591      0.6619886315     -3.5406282767
 H     -2.7019340877      0.3341314465     -2.8355109549
 H     -2.1663521948     -0.0216594093     -4.1946455331
 O     -3.4858936308      2.4985722532     -0.6639752604
 H     -4.1330957449      2.9078194091     -0.0922285372
 H     -3.3868054653      3.1281986416     -1.3833341103
 O      3.0433828709     -0.0793856364      2.0900924153
 H      3.4692533417     -0.7159193571      1.4908263576
 H      3.6371445501      0.0779102261      2.8327844248
 O     -3.9200901964     -0.2293668699     -1.5195464631
 H     -4.7209363277     -0.5388822204     -1.0973841564
 H     -3.8096730455      0.7410214049     -1.3923300415
 O      2.0540453095      2.3200582719     -2.3741896384
 H      1.7585219373      3.2285065771     -2.4829897383
 H      2.7626342820      2.1832332978     -2.9924406409
43
# ORCA AIMD Position Step 30, t=15.00 fs, E_Pot=-171009.92287847 kJ mol^-1, Unit is Angstrom
Zn     -0.0034362772     -0.0353737274      0.0170246262
 N      0.1298289646     -0.6316120845      1.9515720655
 C     -0.6073742473     -1.8967711805      1.9547104285
 C     -1.9499205580     -1.6083340616      1.2298363824
 N     -1.6453617263     -1.2544647666     -0.1576232948
 H      1.1049259586     -0.8029579061      2.1957579956
 H     -0.2962780942     -0.0129683796      2.6423260527
 H     -0.0935018671     -2.7016153173      1.4020788573
 H     -0.8490630926     -2.2709410386      3.0215924612
 H     -2.4271595826     -0.7568172662      1.7751099377
 H     -2.6710538938     -2.5177541304      1.3723840688
 H     -1.3887470375     -2.1280818562     -0.6239309965
 H     -2.5124800737     -0.8657591369     -0.5623947544
 O     -0.0135805241      0.5215680080     -1.8688867232
 H     -0.7363497736      0.6898924597     -2.4840937710
 H      0.6163546464      1.2651862053     -1.9999358719
 O      1.5981626307      1.3228869560      0.2913802199
 H      1.9839013997      1.6455230263     -0.5609452166
 H      2.2870815147      0.9611774095      0.8876758426
 O      1.3693487256     -1.3915649499     -0.7150696071
 H      1.4413291139     -1.6890915114     -1.6138208976
 H      2.2795966635     -1.1837374393     -0.4397147590
 O     -1.2291781655      1.5430923941      0.5486308645
 H     -2.0304409380      1.9078710738      0.1225696512
 H     -0.7214733672      2.3240469845      0.7478843710
 O      4.0966699834     -1.9477304022      0.2783929966
 H      3.9944507327     -2.8833402476      0.1084716907
 H      4.4940310966     -1.6249290527     -0.5511403251
 O     -2.1072534860      0.6646719657     -3.5413826817
 H     -2.6956794591      0.3372750010     -2.8437796040
 H     -2.1648874202     -0.0096322616     -4.1852557888
 O     -3.4857588526      2.4983601795     -0.6619593508
 H     -4.1279970827      2.9027556777     -0.0971141768
 H     -3.3908627395      3.1325016517     -1.3733306484
 O      3.0421571847     -0.0788755024      2.0899184854
 H      3.4673480498     -0.7178523066      1.4924875181
 H      3.6325786406      0.0777450215      2.8379592031
 O     -3.9220504638     -0.2320656070     -1.5205249495
 H     -4.7041936938     -0.5420356260     -1.0928268883
 H     -3.8092221401      0.7321156841     -1.3940538909
 O      2.0545548366      2.3172443268     -2.3773378211
 H      1.7564151095      3.2255878764     -2.4867939297
 H      2.7556217955      2.1839763073     -2.9881578375
43
# ORCA AIMD Position Step 31, t=15.50 fs, E_Pot=-171001.90731698 kJ mol^-1, Unit is Angstrom
Zn     -0.0037007792     -0.0365151133      0.0176558413
 N      0.1286551317     -0.6323213333      1.9535493531
 C     -0.6062439574     -1.8959553455      1.9538342092
 C     -1.9527695494     -1.6059628755      1.2290014679
 N     -1.6464201159     -1.2526197168     -0.1570491359
 H      1.1005829200     -0.8051280749      2.1896113838
 H     -0.2900698633     -0.0098375982      2.6279991858
 H     -0.1005336534     -2.6985800055      1.3957662525
 H     -0.8508839784     -2.2758081993      3.0116955737
 H     -2.4238220034     -0.7591949034      1.7771543034
 H     -2.6713468708     -2.5086529329      1.3808595593
 H     -1.3935479968     -2.1333599866     -0.6267144017
 H     -2.5253291734     -0.8656349700     -0.5524504291
 O     -0.0129433273      0.5207058730     -1.8663256713
 H     -0.7477323132      0.6895022815     -2.4949639351
 H      0.6196095106      1.2633063009     -2.0022218946
 O      1.5994339005      1.3234209591      0.2914623795
 H      1.9881165721      1.6508506978     -0.5727992961
 H      2.2848829090      0.9646136764      0.8909022284
 O      1.3701517785     -1.3886040095     -0.7178299919
 H      1.4428390904     -1.6884322664     -1.6066357370
 H      2.2771045900     -1.1795799621     -0.4495416593
 O     -1.2282206830      1.5428163164      0.5487507361
 H     -2.0304075505      1.9116770681      0.1238754171
 H     -0.7255152645      2.3209872979      0.7451753751
 O      4.1000746669     -1.9477230975      0.2798891237
 H      3.9901085961     -2.8774808440      0.1060953948
 H      4.4901110033     -1.6187287997     -0.5523093357
 O     -2.1055312360      0.6674538453     -3.5419864546
 H     -2.6896611491      0.3405597003     -2.8518885023
 H     -2.1631610944      0.0003678664     -4.1786389356
 O     -3.4855910650      2.4981145178     -0.6600104550
 H     -4.1241690679      2.8980012061     -0.1003832658
 H     -3.3942868842      3.1368943787     -1.3642145626
 O      3.0409575294     -0.0783710986      2.0897658100
 H      3.4657507114     -0.7199232979      1.4946193298
 H      3.6276377939      0.0774217846      2.8423866618
 O     -3.9238681130     -0.2346915245     -1.5215651867
 H     -4.6891669465     -0.5452195820     -1.0875980097
 H     -3.8095726177      0.7227673598     -1.3949396387
 O      2.0549467998      2.3144781831     -2.3803598757
 H      1.7543149438      3.2226629202     -2.4905596073
 H      2.7504432839      2.1841630127     -2.9855187952
43
# ORCA AIMD Position Step 32, t=16.00 fs, E_Pot=-170993.90508632 kJ mol^-1, Unit is Angstrom
Zn     -0.0039774262     -0.0376533295      0.0182903465
 N      0.1275030566     -0.6331764845      1.9554259591
 C     -0.6053816772     -1.8952147170      1.9531186109
 C     -1.9557169256     -1.6037528721      1.2284110280
 N     -1.6475571559     -1.2508424747     -0.1563848097
 H      1.0964410906     -0.8068043388      2.1841138975
 H     -0.2835775538     -0.0064430373      2.6139598927
 H     -0.1073573230     -2.6944285997      1.3901582208
 H     -0.8516091489     -2.2796864243      2.9987654594
 H     -2.4198930593     -0.7624823791      1.7777753528
 H     -2.6690558144     -2.4966726987      1.3880846583
 H     -1.3992102736     -2.1371863469     -0.6294885445
 H     -2.5367259889     -0.8662958476     -0.5430404780
 O     -0.0122618785      0.5199359269     -1.8637726608
 H     -0.7593436374      0.6888925780     -2.5060244195
 H      0.6223653619      1.2604965685     -2.0050132561
 O      1.6007183481      1.3239769685      0.2913969617
 H      1.9920052499      1.6553095190     -0.5819370316
 H      2.2826109229      0.9686652967      0.8936142860
 O      1.3709904555     -1.3856081357     -0.7204266231
 H      1.4440211052     -1.6884498661     -1.6020309589
 H      2.2747972120     -1.1756198848     -0.4589358495
 O     -1.2273245731      1.5425047309      0.5488512681
 H     -2.0305724235      1.9147376728      0.1248863541
 H     -0.7281639465      2.3192525227      0.7431736354
 O      4.1035145404     -1.9476282744      0.2812585964
 H      3.9854821713     -2.8728629798      0.1043380237
 H      4.4861160952     -1.6124143450     -0.5522350132
 O     -2.1037734529      0.6704339263     -3.5424173493
 H     -2.6843660341      0.3437946032     -2.8592048762
 H     -2.1611783050      0.0073950247     -4.1758283462
 O     -3.4853535367      2.4978021257     -0.6581355704
 H     -4.1222495635      2.8938498722     -0.1014076997
 H     -3.3970012484      3.1415823967     -1.3562117251
 O      3.0397776008     -0.0778677122      2.0896395650
 H      3.4644624528     -0.7221275091      1.4972548961
 H      3.6222301884      0.0769018397      2.8459871858
 O     -3.9254899543     -0.2372719450     -1.5227212778
 H     -4.6769093143     -0.5489437652     -1.0809853687
 H     -3.8106415617      0.7134979749     -1.3949394414
 O      2.0551726225      2.3117530143     -2.3832350401
 H      1.7522022685      3.2196597240     -2.4942856082
 H      2.7478954652      2.1836150767     -2.9852137256
43
# ORCA AIMD Position Step 33, t=16.50 fs, E_Pot=-170989.32291773 kJ mol^-1, Unit is Angstrom
Zn     -0.0042670687     -0.0387903759      0.0189285847
 N      0.1263877741     -0.6342161521      1.9571345940
 C     -0.6048143264     -1.8945364732      1.9525346675
 C     -1.9587201442     -1.6017008022      1.2280709696
 N     -1.6488023456     -1.2491488940     -0.1556515237
 H      1.0929072494     -0.8080347020      2.1793828362
 H     -0.2772959756     -0.0021553253      2.6010051316
 H     -0.1137928025     -2.6893002424      1.3851301916
 H     -0.8512827196     -2.2826673985      2.9832586927
 H     -2.4155341469     -0.7662877020      1.7771239473
 H     -2.6644270086     -2.4821786501      1.3939875469
 H     -1.4058450264     -2.1391700196     -0.6320551793
 H     -2.5463188087     -0.8678229848     -0.5341748667
 O     -0.0115964117      0.5192731612     -1.8612791576
 H     -0.7701648005      0.6878559096     -2.5164224744
 H      0.6245209475      1.2566796642     -2.0083051309
 O      1.6020249441      1.3245751311      0.2911398954
 H      1.9953202037      1.6586547832     -0.5877343564
 H      2.2804050066      0.9732942161      0.8958536161
 O      1.3718420079     -1.3825634914     -0.7228303841
 H      1.4448558363     -1.6894238621     -1.6007487942
 H      2.2730974772     -1.1717006101     -0.4677155881
 O     -1.2265105394      1.5421420902      0.5489246730
 H     -2.0308566555      1.9169559202      0.1256357957
 H     -0.7291463991      2.3191808179      0.7419781413
 O      4.1069994270     -1.9474220447      0.2825089474
 H      3.9805336047     -2.8698066504      0.1031053245
 H      4.4820432650     -1.6060239976     -0.5508903614
 O     -2.1019437592      0.6736692453     -3.5426740323
 H     -2.6802848658      0.3467714741     -2.8651095392
 H     -2.1589237130      0.0108935551     -4.1774465345
 O     -3.4850231198      2.4974038878     -0.6563454623
 H     -4.1226694014      2.8904894503     -0.0997561072
 H     -3.3989374606      3.1466746175     -1.3494875077
 O      3.0386142648     -0.0773642211      2.0895415281
 H      3.4634917105     -0.7244561062      1.5004073106
 H      3.6163443651      0.0761675336      2.8487341564
 O     -3.9268736344     -0.2398283458     -1.5240332733
 H     -4.6682373873     -0.5535938755     -1.0724455489
 H     -3.8123381351      0.7049054992     -1.3939944691
 O      2.0552025027      2.3090716956     -2.3859443453
 H      1.7500747721      3.2165269860     -2.4979600945
 H      2.7484651951      2.1822290843     -2.9876571273
43
# ORCA AIMD Position Step 34, t=17.00 fs, E_Pot=-170989.66551328 kJ mol^-1, Unit is Angstrom
Zn     -0.0045681484     -0.0399189562      0.0195657857
 N      0.1253339609     -0.6354656007      1.9586016995
 C     -0.6045683546     -1.8939056655      1.9520478802
 C     -1.9617008234     -1.5998132846      1.2279812882
 N     -1.6501698172     -1.2475621016     -0.1548707378
 H      1.0903648360     -0.8088581236      2.1755517754
 H     -0.2717280791      0.0035753409      2.5899456755
 H     -0.1195930502     -2.6834184227      1.3805548603
 H     -0.8500047266     -2.2848876953      2.9659438816
 H     -2.4109780858     -0.7701036047      1.7754209167
 H     -2.6578820323     -2.4658301612      1.3984897603
 H     -1.4134509340     -2.1390533327     -0.6342603592
 H     -2.5537870651     -0.8702256164     -0.5259679667
 O     -0.0110034470      0.5187304168     -1.8589058818
 H     -0.7793037765      0.6862436487     -2.5253963512
 H      0.6260263953      1.2518829436     -2.0120730677
 O      1.6033446416      1.3252257890      0.2906629200
 H      1.9978817941      1.6607090033     -0.5897670689
 H      2.2784467372      0.9784075976      0.8976778522
 O      1.3726811271     -1.3794894541     -0.7250173046
 H      1.4452984821     -1.6914782217     -1.6031040429
 H      2.2723872864     -1.1677167622     -0.4756653396
 O     -1.2257951168      1.5417298479      0.5489669592
 H     -2.0311753454      1.9182366002      0.1261532279
 H     -0.7283577467      2.3208683553      0.7416279561
 O      4.1105065408     -1.9470955909      0.2836419130
 H      3.9752880695     -2.8684668979      0.1023347726
 H      4.4779617080     -1.5996244509     -0.5483520140
 O     -2.1000297696      0.6771488688     -3.5427827176
 H     -2.6778341198      0.3492925769     -2.8690921322
 H     -2.1563653867      0.0108987246     -4.1834708342
 O     -3.4845980435      2.4969215476     -0.6546547932
 H     -4.1255240978      2.8879512607     -0.0953217303
 H     -3.4000468554      3.1521408374     -1.3441249279
 O      3.0374705887     -0.0768645451      2.0894696471
 H      3.4628515570     -0.7268876014      1.5040512733
 H      3.6100746519      0.0752283682      2.8506639893
 O     -3.9279979354     -0.2423711194     -1.5255126472
 H     -4.6635188414     -0.5593158835     -1.0617856213
 H     -3.8145594650      0.6976182960     -1.3920570441
 O      2.0550355141      2.3064524114     -2.3884714088
 H      1.7479534179      3.2132485352     -2.5015534761
 H      2.7521645943      2.1800139457     -2.9928408353
43
# ORCA AIMD Position Step 35, t=17.50 fs, E_Pot=-170993.61135891 kJ mol^-1, Unit is Angstrom
Zn     -0.0048825197     -0.0410451469      0.0202047537
 N      0.1243516181     -0.6369510871      1.9597885048
 C     -0.6046589774     -1.8932923373      1.9516063877
 C     -1.9646046717     -1.5980639261      1.2281308341
 N     -1.6516828957     -1.2460787074     -0.1540485579
 H      1.0890647739     -0.8093180750      2.1726751696
 H     -0.2671891097      0.0111959210      2.5812496937
 H     -0.1245798028     -2.6769707678      1.3762145910
 H     -0.8479206168     -2.2865893899      2.9475786006
 H     -2.4064286980     -0.7734083221      1.7729250179
 H     -2.6499248294     -2.4482895371      1.4016246146
 H     -1.4220506476     -2.1367524819     -0.6360505302
 H     -2.5590360713     -0.8734717770     -0.5184619473
 O     -0.0105227771      0.5183058117     -1.8566732053
 H     -0.7862099511      0.6839399750     -2.5324804969
 H      0.6269281111      1.2461594197     -2.0163425778
 O      1.6046775938      1.3259414491      0.2899474005
 H      1.9996424407      1.6614206860     -0.5879019915
 H      2.2768977115      0.9839565978      0.8991987246
 O      1.3735002413     -1.3763787474     -0.7270185556
 H      1.4452918210     -1.6945735007     -1.6089094258
 H      2.2729261346     -1.1635508816     -0.4827241631
 O     -1.2251735855      1.5412800452      0.5489797072
 H     -2.0314504799      1.9185302516      0.1264747538
 H     -0.7258857652      2.3241548689      0.7420768464
 O      4.1140498802     -1.9466519300      0.2846771406
 H      3.9697415487     -2.8687579805      0.1019804897
 H      4.4739276135     -1.5931827371     -0.5447641199
 O     -2.0980101814      0.6808583774     -3.5427961888
 H     -2.6772127481      0.3512630073     -2.8709440060
 H     -2.1534151247      0.0080741418     -4.1932940869
 O     -3.4840923556      2.4963701236     -0.6530456862
 H     -4.1305685789      2.8860371137     -0.0882985944
 H     -3.4003370785      3.1579123092     -1.3399937553
 O      3.0363330214     -0.0763675612      2.0894163707
 H      3.4625420558     -0.7294346542      1.5081888627
 H      3.6034964077      0.0741043364      2.8519233204
 O     -3.9288925611     -0.2449484852     -1.5271640370
 H     -4.6624505452     -0.5660673224     -1.0490583644
 H     -3.8172410558      0.6920515814     -1.3890736904
 O      2.0546995202      2.3038753183     -2.3908557253
 H      1.7458409381      3.2097837464     -2.5050922390
 H      2.7585539409      2.1770577846     -3.0003950045
43
# ORCA AIMD Position Step 36, t=18.00 fs, E_Pot=-170998.01843696 kJ mol^-1, Unit is Angstrom
Zn     -0.0052105775     -0.0421696599      0.0208453616
 N      0.1234522657     -0.6386746327      1.9606703743
 C     -0.6050968574     -1.8926633269      1.9511497902
 C     -1.9673523713     -1.5964232165      1.2285022425
 N     -1.6533521819     -1.2446959859     -0.1531878128
 H      1.0891450585     -0.8094380232      2.1707981366
 H     -0.2638496779      0.0208677163      2.5751633018
 H     -0.1285519315     -2.6701830228      1.3718949213
 H     -0.8452302229     -2.2880771051      2.9291640337
 H     -2.4021193924     -0.7756344273      1.7699315037
 H     -2.6412369812     -2.4304766711      1.4034549805
 H     -1.4315761885     -2.1323418767     -0.6374352527
 H     -2.5620597705     -0.8774561498     -0.5117675060
 O     -0.0101894660      0.5179936576     -1.8546027792
 H     -0.7904802408      0.6808761459     -2.5373211186
 H      0.6273369208      1.2396539521     -2.0211324338
 O      1.6060123941      1.3267261390      0.2889904493
 H      2.0006355261      1.6608158979     -0.5822206041
 H      2.2759202335      0.9898636627      0.9005363446
 O      1.3742975241     -1.3732467644     -0.7288786558
 H      1.4447615763     -1.6984913335     -1.6175186612
 H      2.2748341807     -1.1591496111     -0.4888551401
 O     -1.2246335722      1.5408196666      0.5489687212
 H     -2.0316124021      1.9178049269      0.1266289613
 H     -0.7219866027      2.3286416076      0.7432158825
 O      4.1176225827     -1.9461092906      0.2856317114
 H      3.9639487926     -2.8704039142      0.1020304524
 H      4.4700455544     -1.5866733588     -0.5403593750
 O     -2.0958869921      0.6847343026     -3.5427776802
 H     -2.6784194623      0.3526686353     -2.8707137762
 H     -2.1499859362      0.0035001469     -4.2058355690
 O     -3.4835388464      2.4957818764     -0.6514985325
 H     -4.1372484295      2.8844085183     -0.0791789359
 H     -3.3998422330      3.1638064507     -1.3368717594
 O      3.0351910852     -0.0758753064      2.0893706416
 H      3.4625639882     -0.7321038855      1.5127957891
 H      3.5967563376      0.0728369217      2.8527182620
 O     -3.9296111872     -0.2475986512     -1.5289628806
 H     -4.6642576389     -0.5735550767     -1.0347011164
 H     -3.8203349476      0.6884732525     -1.3850160248
 O      2.0542453824      2.3013276850     -2.3931433454
 H      1.7437545727      3.2061231750     -2.5085975934
 H      2.7668180439      2.1735334636     -3.0096226683
43
# ORCA AIMD Position Step 37, t=18.50 fs, E_Pot=-170999.87089101 kJ mol^-1, Unit is Angstrom
Zn     -0.0055491776     -0.0432815902      0.0214809793
 N      0.1226520590     -0.6405967005      1.9612394653
 C     -0.6058794902     -1.8919880069      1.9506135706
 C     -1.9698291760     -1.5948636817      1.2290678685
 N     -1.6551631581     -1.2434179811     -0.1522933853
 H      1.0905893079     -0.8092234124      2.1699491005
 H     -0.2617124398      0.0323205666      2.5716686728
 H     -0.1312932690     -2.6633446850      1.3674253449
 H     -0.8422033885     -2.2897044755      2.9120090546
 H     -2.3983146927     -0.7762183008      1.7667713201
 H     -2.6327285254     -2.4136537690      1.4040876476
 H     -1.4418028435     -2.1261134860     -0.6384867415
 H     -2.5629656220     -0.8819656876     -0.5060848967
 O     -0.0100345506      0.5177853850     -1.8527277364
 H     -0.7918493880      0.6770537825     -2.5396619015
 H      0.6274278269      1.2326435202     -2.0264188417
 O      1.6073192290      1.3275691113      0.2878157113
 H      2.0009873308      1.6590277718     -0.5731239961
 H      2.2756574771      0.9959908864      0.9018014295
 O      1.3750731742     -1.3701463732     -0.7306389630
 H      1.4436416706     -1.7028401723     -1.6278668147
 H      2.2780401141     -1.1545575418     -0.4940273717
 O     -1.2241590790      1.5403890036      0.5489435429
 H     -2.0316067385      1.9160692582      0.1266359536
 H     -0.7170860181      2.3337139896      0.7448731554
 O      4.1211771154     -1.9455029870      0.2865156220
 H      3.9580581722     -2.8729473357      0.1024922943
 H      4.4664791299     -1.5801199177     -0.5354817040
 O     -2.0936978272      0.6886546964     -3.5427874902
 H     -2.6812163531      0.3535826667     -2.8687322559
 H     -2.1460407210     -0.0015148432     -4.2196626892
 O     -3.4829865617      2.4952043299     -0.6500034657
 H     -4.1447429850      2.8826591926     -0.0687439047
 H     -3.3986326332      3.1695161011     -1.3344789089
 O      3.0340447422     -0.0753955098      2.0893190444
 H      3.4629122155     -0.7348768317      1.5177895688
 H      3.5900988706      0.0714943328      2.8532996801
 O     -3.9302182586     -0.2503261439     -1.5308482001
 H     -4.6678221580     -0.5812580486     -1.0195488009
 H     -3.8237886663      0.6869450774     -1.3799320268
 O      2.0537411642      2.2988195823     -2.3953668216
 H      1.7417343166      3.2023142122     -2.5120641358
 H      2.7758536553      2.1696933703     -3.0195628824
43
# ORCA AIMD Position Step 38, t=19.00 fs, E_Pot=-170997.83633284 kJ mol^-1, Unit is Angstrom
Zn     -0.0059023381     -0.0443942948      0.0221189795
 N      0.1219456754     -0.6426961309      1.9615253211
 C     -0.6070116990     -1.8912212646      1.9499185984
 C     -1.9719744218     -1.5933097302      1.2298083622
 N     -1.6571319325     -1.2422134423     -0.1513441365
 H      1.0932534995     -0.8086608609      2.1700981867
 H     -0.2605458786      0.0452063047      2.5703675309
 H     -0.1326955079     -2.6565679195      1.3625612102
 H     -0.8390638697     -2.2918932601      2.8970659894
 H     -2.3951563159     -0.7747049612      1.7636762808
 H     -2.6252085081     -2.3987955972      1.4037026741
 H     -1.4526733594     -2.1183934581     -0.6393744683
 H     -2.5620328702     -0.8868213727     -0.5015011142
 O     -0.0100775516      0.5176628050     -1.8510306359
 H     -0.7902562693      0.6724287263     -2.5394390342
 H      0.6274323501      1.2253009377     -2.0322955393
 O      1.6085927562      1.3284701128      0.2864406997
 H      2.0009458749      1.6562628900     -0.5611057115
 H      2.2761960483      1.0023414433      0.9031220785
 O      1.3758533456     -1.3670637032     -0.7323846580
 H      1.4418608145     -1.7072572246     -1.6389613674
 H      2.2823712173     -1.1497697648     -0.4983887068
 O     -1.2237177217      1.5400214954      0.5489154972
 H     -2.0314029997      1.9133321787      0.1265065608
 H     -0.7115758392      2.3387890761      0.7468832346
 O      4.1247409361     -1.9448622365      0.2873601828
 H      3.9521161866     -2.8758842191      0.1033908682
 H      4.4633207880     -1.5733932309     -0.5304092124
 O     -2.0914431479      0.6925796330     -3.5428725218
 H     -2.6852381531      0.3541859054     -2.8655124518
 H     -2.1414887943     -0.0058152240     -4.2336452995
 O     -3.4824753430      2.4946743810     -0.6485161013
 H     -4.1523251178      2.8803385916     -0.0576308221
 H     -3.3967774919      3.1748314556     -1.3324352778
 O      3.0328690289     -0.0749257682      2.0892458878
 H      3.4635812583     -0.7377950231      1.5231870303
 H      3.5836300895      0.0701235293      2.8539560573
 O     -3.9307960698     -0.2531812062     -1.5327899264
 H     -4.6720008052     -0.5887710695     -1.0042220059
 H     -3.8276474015      0.6872329615     -1.3738066059
 O      2.0532456898      2.2963049682     -2.3976081318
 H      1.7397733529      3.1983412201     -2.5155677941
 H      2.7847260016      2.1657143876     -3.0294512757
43
# ORCA AIMD Position Step 39, t=19.50 fs, E_Pot=-170992.65423062 kJ mol^-1, Unit is Angstrom
Zn     -0.0062667241     -0.0454976930      0.0227534896
 N      0.1213429404     -0.6448936536      1.9615638887
 C     -0.6084739431     -1.8903378069      1.9490027297
 C     -1.9736845299     -1.5917097995      1.2306929686
 N     -1.6592278737     -1.2410718326     -0.1503319030
 H      1.0968267834     -0.8077325967      2.1711979641
 H     -0.2600340796      0.0586891534      2.5707209042
 H     -0.1326546779     -2.6500610758      1.3571982811
 H     -0.8360844271     -2.2950134278      2.8855344030
 H     -2.3928048726     -0.7707823165      1.7608798516
 H     -2.6196557261     -2.3871865737      1.4025032198
 H     -1.4638704678     -2.1097846429     -0.6403083671
 H     -2.5596602213     -0.8916939407     -0.4982277410
 O     -0.0103324975      0.5176089561     -1.8495247549
 H     -0.7857697775      0.6670714092     -2.5366684615
 H      0.6276118114      1.2179690091     -2.0387432373
 O      1.6097962839      1.3294025582      0.2849284132
 H      2.0008734894      1.6528825690     -0.5471498544
 H      2.2775660437      1.0088023237      0.9045752411
 O      1.3766542882     -1.3640478312     -0.7341598262
 H      1.4394000245     -1.7112848573     -1.6496047619
 H      2.2874493466     -1.1449190801     -0.5020281423
 O     -1.2232845900      1.5397567080      0.5488974124
 H     -2.0309985218      1.9096752042      0.1262394983
 H     -0.7059641544      2.3431879752      0.7490396473
 O      4.1282656968     -1.9442308325      0.2881786597
 H      3.9463085488     -2.8786278230      0.1047365551
 H      4.4607295661     -1.5665042414     -0.5255286802
 O     -2.0891754437      0.6963941046     -3.5430622377
 H     -2.6899437727      0.3546954938     -2.8617408728
 H     -2.1363603817     -0.0083252080     -4.2465153211
 O     -3.4820530295      2.4942368663     -0.6470252210
 H     -4.1591531537      2.8770874975     -0.0466774903
 H     -3.3943869676      3.1794330038     -1.3304096357
 O      3.0316647121     -0.0744738435      2.0891373851
 H      3.4645499750     -0.7408384388      1.5288936418
 H      3.5775796962      0.0688007050      2.8549540751
 O     -3.9314078755     -0.2561397000     -1.5347157907
 H     -4.6756533780     -0.5955606379     -0.9896518810
 H     -3.8318965499      0.6889078661     -1.3667821360
 O      2.0528218898      2.2937910638     -2.3998963616
 H      1.7379021742      3.1942867663     -2.5191135620
 H      2.7924153450      2.1618353717     -3.0384068050
43
# ORCA AIMD Position Step 40, t=20.00 fs, E_Pot=-170986.69967319 kJ mol^-1, Unit is Angstrom
Zn     -0.0066410303     -0.0465888014      0.0233828594
 N      0.1208494859     -0.6471143978      1.9614033530
 C     -0.6102481204     -1.8893195813      1.9478165856
 C     -1.9748919948     -1.5900039366      1.2317009906
 N     -1.6614251440     -1.2399707378     -0.1492382878
 H      1.1009180875     -0.8064172418      2.1731713804
 H     -0.2597979752      0.0718917892      2.5720788668
 H     -0.1311517234     -2.6439257324      1.3512687367
 H     -0.8334612078     -2.2993629440      2.8782379025
 H     -2.3913224218     -0.7643375873      1.7585022969
 H     -2.6168509306     -2.3797904320      1.4006910287
 H     -1.4751169427     -2.1009433305     -0.6415461531
 H     -2.5563523204     -0.8962463336     -0.4964401070
 O     -0.0108028404      0.5176050525     -1.8482038554
 H     -0.7786074139      0.6610564525     -2.5314958374
 H      0.6282280423      1.2109318577     -2.0457708376
 O      1.6108980566      1.3303371283      0.2833532587
 H      2.0012442695      1.6493413604     -0.5324411730
 H      2.2797372564      1.0153195533      0.9062061939
 O      1.3775001551     -1.3611235667     -0.7360090325
 H      1.4362631735     -1.7145392164     -1.6588100719
 H      2.2928378015     -1.1401337678     -0.5050933336
 O     -1.2228326044      1.5396242532      0.5489016420
 H     -2.0304190488      1.9051955172      0.1258201086
 H     -0.7006849102      2.3463522308      0.7511630208
 O      4.1317268027     -1.9436449596      0.2889884213
 H      3.9407839830     -2.8806518804      0.1065290134
 H      4.4588198448     -1.5594376530     -0.5211589408
 O     -2.0869338774      0.7000229035     -3.5433702991
 H     -2.6947809984      0.3553490623     -2.8581149472
 H     -2.1306928977     -0.0082569857     -4.2573350758
 O     -3.4817558096      2.4939241138     -0.6455140231
 H     -4.1645605974      2.8726288901     -0.0365535750
 H     -3.3915662406      3.1830816601     -1.3280974331
 O      3.0304282613     -0.0740442172      2.0889823473
 H      3.4657928022     -0.7439995312      1.5348459715
 H      3.5720936261      0.0675864592      2.8565166697
 O     -3.9321076667     -0.2591794223     -1.5365695549
 H     -4.6778637822     -0.6012373996     -0.9765687782
 H     -3.8365458967      0.6913853248     -1.3590099176
 O      2.0525175283      2.2912708388     -2.4022643773
 H      1.7361311841      3.1902210285     -2.5227266120
 H      2.7981538367      2.1582319367     -3.0457779165
43
# ORCA AIMD Position Step 41, t=20.50 fs, E_Pot=-170982.61804980 kJ mol^-1, Unit is Angstrom
Zn     -0.0070290919     -0.0476798273      0.0240143600
 N      0.1204664850     -0.6493143977      1.9610906400
 C     -0.6123407429     -1.8881508365      1.9463192391
 C     -1.9755763721     -1.5881216893      1.2328365260
 N     -1.6637237543     -1.2388714428     -0.1480272434
 H      1.1051495528     -0.8046802002      2.1759541028
 H     -0.2594682561      0.0841170482      2.5738190982
 H     -0.1282150917     -2.6381100743      1.3446970414
 H     -0.8312648259     -2.3051597635      2.8755127047
 H     -2.3906744757     -0.7553792460      1.7565278777
 H     -2.6172642666     -2.3770968143      1.3983973304
 H     -1.4862841099     -2.0924405985     -0.6433797431
 H     -2.5526268567     -0.9001857819     -0.4962820196
 O     -0.0114872165      0.5176338677     -1.8470360975
 H     -0.7690273256      0.6543996546     -2.5241121215
 H      0.6295223448      1.2043301395     -2.0534737918
 O      1.6118790388      1.3312507806      0.2817829407
 H      2.0026358286      1.6461299369     -0.5181635073
 H      2.2826475126      1.0219491954      0.9080440164
 O      1.3784268348     -1.3582699066     -0.7379893863
 H      1.4324361847     -1.7167527403     -1.6659216102
 H      2.2981502623     -1.1354853784     -0.5077801888
 O     -1.2223312459      1.5396426038      0.5489395476
 H     -2.0297082273      1.8999470688      0.1252136804
 H     -0.6960250326      2.3478967010      0.7531325680
 O      4.1351505471     -1.9431250249      0.2898148139
 H      3.9356037791     -2.8815492818      0.1087733153
 H      4.4576458495     -1.5521094588     -0.5174868518
 O     -2.0847234363      0.7034583077     -3.5438025308
 H     -2.6992981637      0.3563786923     -2.8552299729
 H     -2.1244692568     -0.0050782771     -4.2655739987
 O     -3.4816059347      2.4937532370     -0.6439491421
 H     -4.1681186672      2.8667272724     -0.0276491222
 H     -3.3883758881      3.1856551464     -1.3252303367
 O      3.0291429784     -0.0736350246      2.0887719915
 H      3.4672956159     -0.7473078213      1.5410662207
 H      3.5671827992      0.0665119062      2.8588126820
 O     -3.9329445537     -0.2623090759     -1.5383278344
 H     -4.6779864156     -0.6056043413     -0.9653780919
 H     -3.8416602809      0.6940500554     -1.3505637799
 O      2.0523626240      2.2887045669     -2.4047664715
 H      1.7344380466      3.1861628263     -2.5264779856
 H      2.8014745596      2.1549835423     -3.0512031156
43
# ORCA AIMD Position Step 42, t=21.00 fs, E_Pot=-170982.34765162 kJ mol^-1, Unit is Angstrom
Zn     -0.0074331024     -0.0487778199      0.0246524504
 N      0.1202013276     -0.6514440380      1.9606678877
 C     -0.6147553182     -1.8868381836      1.9445016757
 C     -1.9757424827     -1.5860215487      1.2341129150
 N     -1.6661121158     -1.2377425543     -0.1466671409
 H      1.1091213727     -0.8025003987      2.1794745796
 H     -0.2587282016      0.0946657256      2.5753857452
 H     -0.1239307898     -2.6325303764      1.3375056483
 H     -0.8294797893     -2.3124393432      2.8773328237
 H     -2.3907744235     -0.7441212936      1.7548600359
 H     -2.6210529460     -2.3792026912      1.3956846724
 H     -1.4971978925     -2.0848688667     -0.6460862000
 H     -2.5490244065     -0.9031907692     -0.4979069780
 O     -0.0123703347      0.5176817408     -1.8459896849
 H     -0.7574531837      0.6471634104     -2.5148456064
 H      0.6316857157      1.1982721286     -2.0619032665
 O      1.6127132337      1.3321119736      0.2803005709
 H      2.0056921842      1.6438020506     -0.5056678092
 H      2.2861756074      1.0287337991      0.9100756985
 O      1.3794647892     -1.3554755362     -0.7401373334
 H      1.4279325633     -1.7177118401     -1.6704389940
 H      2.3029941030     -1.1310664468     -0.5102572745
 O     -1.2217555926      1.5398224873      0.5490214100
 H     -2.0289331990      1.8940100672      0.1243724967
 H     -0.6922143343      2.3475501738      0.7548502609
 O      4.1385503294     -1.9426847719      0.2906749896
 H      3.9308404717     -2.8810091542      0.1114478876
 H      4.4572382738     -1.5445085177     -0.5146319579
 O     -2.0825549516      0.7066903348     -3.5443558848
 H     -2.7030885015      0.3579843855     -2.8536118825
 H     -2.1177102079      0.0015421049     -4.2708668436
 O     -3.4816186752      2.4937328497     -0.6423079875
 H     -4.1695231265      2.8592541604     -0.0202651287
 H     -3.3848755720      3.1870801316     -1.3216271663
 O      3.0278021019     -0.0732462275      2.0885032759
 H      3.4690357490     -0.7507711370      1.5475562360
 H      3.5628218533      0.0655997886      2.8619179605
 O     -3.9339521208     -0.2655168408     -1.5399656842
 H     -4.6755777125     -0.6085399351     -0.9564153921
 H     -3.8472706023      0.6962805008     -1.3415680542
 O      2.0523768298      2.2860666361     -2.4074359144
 H      1.7328013583      3.1821489611     -2.5304161094
 H      2.8020757902      2.1521433065     -3.0544503846
43
# ORCA AIMD Position Step 43, t=21.50 fs, E_Pot=-170986.50433923 kJ mol^-1, Unit is Angstrom
Zn     -0.0078439952     -0.0498594451      0.0252840162
 N      0.1200697602     -0.6534039813      1.9601826661
 C     -0.6174284235     -1.8854439949      1.9424360065
 C     -1.9754310795     -1.5837485376      1.2355184090
 N     -1.6685129942     -1.2365896951     -0.1451696603
 H      1.1123590607     -0.7999373611      2.1835588057
 H     -0.2573602269      0.1026820248      2.5762870879
 H     -0.1185716006     -2.6272020776      1.3299902043
 H     -0.8280424345     -2.3208444315      2.8831625178
 H     -2.3914752429     -0.7312729385      1.7533711199
 H     -2.6278649955     -2.3856169278      1.3926173636
 H     -1.5074128607     -2.0789225441     -0.6498045015
 H     -2.5461328606     -0.9048892369     -0.5013774998
 O     -0.0133942968      0.5177378088     -1.8450519852
 H     -0.7448238515      0.6396401873     -2.5044564811
 H      0.6347668032      1.1929402185     -2.0708471212
 O      1.6133572222      1.3328673238      0.2790239632
 H      2.0109238968      1.6429304705     -0.4965215359
 H      2.2900548528      1.0355399622      0.9121983143
 O      1.3806107545     -1.3528013669     -0.7424157679
 H      1.4229099204     -1.7172715361     -1.6719838872
 H      2.3069055741     -1.1270758782     -0.5126062918
 O     -1.2211022347      1.5401582937      0.5491531008
 H     -2.0281978873      1.8876404825      0.1232637622
 H     -0.6894830187      2.3452213388      0.7562108694
 O      4.1418504390     -1.9423377311      0.2915568558
 H      3.9266694812     -2.8788825172      0.1144296489
 H      4.4575902280     -1.5368855347     -0.5126779375
 O     -2.0804923088      0.7096382494     -3.5450043986
 H     -2.7057430714      0.3602721038     -2.8536995323
 H     -2.1106368480      0.0115076901     -4.2729615404
 O     -3.4817978695      2.4938593587     -0.6406178408
 H     -4.1686197193      2.8503955187     -0.0147395707
 H     -3.3812094853      3.1873380493     -1.3173015160
 O      3.0264409583     -0.0728879702      2.0881869571
 H      3.4709359977     -0.7542915047      1.5541426764
 H      3.5590322218      0.0648805714      2.8657174992
 O     -3.9351222240     -0.2686985885     -1.5414229338
 H     -4.6705040104     -0.6099663458     -0.9500913122
 H     -3.8532275757      0.6974590750     -1.3324099922
 O      2.0525648396      2.2834078692     -2.4102200509
 H      1.7312361376      3.1783180923     -2.5344707256
 H      2.7998747575      2.1497920294     -3.0553967333
43
# ORCA AIMD Position Step 44, t=22.00 fs, E_Pot=-170994.11055350 kJ mol^-1, Unit is Angstrom
Zn     -0.0082626440     -0.0509286556      0.0259118115
 N      0.1200798130     -0.6551607023      1.9596637054
 C     -0.6203539704     -1.8840130077      1.9401738092
 C     -1.9747218624     -1.5813216578      1.2370778828
 N     -1.6709130317     -1.2353998286     -0.1435239904
 H      1.1145636490     -0.7970216178      2.1881199470
 H     -0.2552247550      0.1077608015      2.5762077767
 H     -0.1123619093     -2.6219648470      1.3223260000
 H     -0.8267763957     -2.3300399003      2.8921407759
 H     -2.3925957923     -0.7173920983      1.7518478872
 H     -2.6370948724     -2.3954498460      1.3891409611
 H     -1.5168095828     -2.0749100483     -0.6546288693
 H     -2.5443165977     -0.9050576852     -0.5067188436
 O     -0.0145035379      0.5177970911     -1.8441741190
 H     -0.7319966440      0.6319688180     -2.4936630513
 H      0.6387673322      1.1882625551     -2.0802654717
 O      1.6138026037      1.3334950925      0.2780079869
 H      2.0187143259      1.6438592739     -0.4915450827
 H      2.2940776218      1.0424095506      0.9143329177
 O      1.3818799063     -1.3502336482     -0.7448262761
 H      1.4174287348     -1.7154183957     -1.6705593463
 H      2.3096449667     -1.1235743381     -0.5149419920
 O     -1.2203607702      1.5406370005      0.5493395747
 H     -2.0275904778      1.8809513231      0.1218326809
 H     -0.6878479645      2.3409962220      0.7571974377
 O      4.1450652264     -1.9420729709      0.2924641572
 H      3.9231088705     -2.8751747409      0.1176346348
 H      4.4586357452     -1.5293519294     -0.5115215428
 O     -2.0785369814      0.7123221056     -3.5457284617
 H     -2.7070763126      0.3633238062     -2.8557267696
 H     -2.1033093908      0.0246290865     -4.2720196584
 O     -3.4821357977      2.4941155503     -0.6388702914
 H     -4.1654920298      2.8402590162     -0.0110425419
 H     -3.3774193020      3.1865477903     -1.3122788253
 O      3.0250659690     -0.0725601185      2.0878331143
 H      3.4729566361     -0.7578474154      1.5608179066
 H      3.5556609622      0.0643451822      2.8700745831
 O     -3.9364575299     -0.2718298902     -1.5426924255
 H     -4.6628232929     -0.6100091296     -0.9463996087
 H     -3.8594935270      0.6971476835     -1.3232546264
 O      2.0529160838      2.2807176862     -2.4131198525
 H      1.7297136329      3.1746921553     -2.5386577294
 H      2.7950541067      2.1478861734     -3.0542106696
43
# ORCA AIMD Position Step 45, t=22.50 fs, E_Pot=-171002.73281175 kJ mol^-1, Unit is Angstrom
Zn     -0.0086870369     -0.0519819185      0.0265341729
 N      0.1202380998     -0.6566810894      1.9591335731
 C     -0.6235034442     -1.8826072804      1.9377942365
 C     -1.9737176144     -1.5787923897      1.2388058341
 N     -1.6732905318     -1.2341788729     -0.1417444094
 H      1.1155153510     -0.7938262792      2.1930499174
 H     -0.2522898113      0.1096437732      2.5749709645
 H     -0.1056006695     -2.6166803796      1.3147745169
 H     -0.8254876868     -2.3395393904      2.9031590249
 H     -2.3939378680     -0.7031814725      1.7500791262
 H     -2.6478807306     -2.4075013562      1.3852047521
 H     -1.5252619302     -2.0729345999     -0.6604846954
 H     -2.5437663231     -0.9035599913     -0.5138391013
 O     -0.0156183790      0.5178588059     -1.8433051005
 H     -0.7200890221      0.6243558674     -2.4834200371
 H      0.6435702041      1.1841111499     -2.0900219436
 O      1.6140571669      1.3339847812      0.2772757902
 H      2.0290852250      1.6466747286     -0.4909679044
 H      2.2980020056      1.0493394157      0.9163704689
 O      1.3832714744     -1.3477722950     -0.7473406127
 H      1.4115911357     -1.7122498552     -1.6664223384
 H      2.3110696676     -1.1206157148     -0.5173290526
 O     -1.2195334247      1.5412324342      0.5495815750
 H     -2.0271947679      1.8740950775      0.1200372701
 H     -0.6872267397      2.3351556711      0.7578293725
 O      4.1481913973     -1.9418692659      0.2933901706
 H      3.9201633248     -2.8700708614      0.1209348004
 H      4.4602688705     -1.5221105062     -0.5109789423
 O     -2.0766958291      0.7147621061     -3.5464962788
 H     -2.7070234509      0.3671394817     -2.8597598727
 H     -2.0958363853      0.0403940647     -4.2684759038
 O     -3.4826121211      2.4944715191     -0.6370741598
 H     -4.1604267301      2.8291100711     -0.0089981876
 H     -3.3735545035      3.1849198432     -1.3067072526
 O      3.0236959722     -0.0722646172      2.0874584648
 H      3.4750413043     -0.7613861692      1.5675334004
 H      3.5525356392      0.0639774643      2.8747526577
 O     -3.9379390247     -0.2748664833     -1.5437701288
 H     -4.6528703193     -0.6089093231     -0.9451812064
 H     -3.8659647800      0.6950527472     -1.3143195240
 O      2.0534034533      2.2780082148     -2.4161046679
 H      1.7282155299      3.1712976911     -2.5429535768
 H      2.7880552745      2.1463461076     -3.0512598884
43
# ORCA AIMD Position Step 46, t=23.00 fs, E_Pot=-171009.27327689 kJ mol^-1, Unit is Angstrom
Zn     -0.0091098066     -0.0530027210      0.0271416346
 N      0.1205445252     -0.6579297426      1.9586116265
 C     -0.6268016609     -1.8813063193      1.9354096241
 C     -1.9725433395     -1.5762508194      1.2406877916
 N     -1.6756046858     -1.2329585010     -0.1398845889
 H      1.1151105484     -0.7904901456      2.1981873453
 H     -0.2486627502      0.1082869869      2.5725708647
 H     -0.0986932685     -2.6112838480      1.3076985974
 H     -0.8240083103     -2.3487116059      2.9149045951
 H     -2.3952926222     -0.6895138463      1.7479010808
 H     -2.6591506597     -2.4203277378      1.3808267607
 H     -1.5326118100     -2.0728535512     -0.6670677374
 H     -2.5444469710     -0.9004075558     -0.5224392140
 O     -0.0166352971      0.5179254234     -1.8424007434
 H     -0.7104376382      0.6171008167     -2.4748898523
 H      0.6489090489      1.1803355974     -2.0998295076
 O      1.6141496556      1.3343394982      0.2768129379
 H      2.0415352251      1.6511222808     -0.4942883020
 H      2.3015498575      1.0562361660      0.9181749998
 O      1.3847580239     -1.3454423212     -0.7498847539
 H      1.4055761335     -1.7080208688     -1.6601643954
 H      2.3111643262     -1.1182488614     -0.5197662860
 O     -1.2186421018      1.5419005005      0.5498727417
 H     -2.0270748627      1.8672997896      0.1178734106
 H     -0.6874236445      2.3282314915      0.7581650370
 O      4.1511918514     -1.9416967332      0.2943139290
 H      3.9178257281     -2.8639831376      0.1241420428
 H      4.4623354248     -1.5154716832     -0.5108079884
 O     -2.0749886807      0.7169708169     -3.5472576010
 H     -2.7056762763      0.3715968916     -2.8656303537
 H     -2.0884127919      0.0578176494     -4.2631284946
 O     -3.4831884727      2.4948820796     -0.6352673890
 H     -4.1539787803      2.8174468463     -0.0082611192
 H     -3.3696962900      3.1827700014     -1.3008852502
 O      3.0223680951     -0.0720065778      2.0870869645
 H      3.4771055976     -0.7648071430      1.5741594794
 H      3.5495001729      0.0637578392      2.8794157334
 O     -3.9395145707     -0.2777305719     -1.5446544491
 H     -4.6413573729     -0.6070539153     -0.9460686501
 H     -3.8724355484      0.6910907653     -1.3059102275
 O      2.0539779563      2.2753297834     -2.4190940617
 H      1.7267435035      3.1681773683     -2.5472696605
 H      2.7796586971      2.1450591160     -3.0471615768
43
# ORCA AIMD Position Step 47, t=23.50 fs, E_Pot=-171011.36462943 kJ mol^-1, Unit is Angstrom
Zn     -0.0095358724     -0.0540045659      0.0277423994
 N      0.1210020569     -0.6589256684      1.9580918536
 C     -0.6302613547     -1.8801444945      1.9330575230
 C     -1.9712879424     -1.5737113221      1.2427525767
 N     -1.6778927505     -1.2317424704     -0.1379597067
 H      1.1133742501     -0.7870770615      2.2035323342
 H     -0.2444457834      0.1038586050      2.5690902161
 H     -0.0918428714     -2.6055823940      1.3012327949
 H     -0.8221654527     -2.3572289589      2.9264741761
 H     -2.3965151422     -0.6767932587      1.7451383229
 H     -2.6702105495     -2.4329292050      1.3759400342
 H     -1.5389849689     -2.0742848626     -0.6741313278
 H     -2.5461184905     -0.8956541746     -0.5323530867
 O     -0.0174842469      0.5180048745     -1.8413962323
 H     -0.7039755077      0.6102611453     -2.4688979058
 H      0.6546070571      1.1766334100     -2.1096672290
 O      1.6141312739      1.3345896348      0.2765528535
 H      2.0555808184      1.6568258826     -0.5005060489
 H      2.3045798818      1.0631985516      0.9196770268
 O      1.3863461732     -1.3431953051     -0.7524457118
 H      1.3993852160     -1.7029770095     -1.6524625127
 H      2.3100655357     -1.1164102018     -0.5222871594
 O     -1.2176920281      1.5426082384      0.5502109327
 H     -2.0272540289      1.8605795433      0.1152974570
 H     -0.6881425919      2.3207029028      0.7583137917
 O      4.1541211514     -1.9415126949      0.2952407703
 H      3.9159735438     -2.8572818237      0.1271525463
 H      4.4647333820     -1.5095450771     -0.5107373170
 O     -2.0733756829      0.7190470454     -3.5479759261
 H     -2.7032458682      0.3766281849     -2.8731563792
 H     -2.0810021528      0.0761656115     -4.2569289148
 O     -3.4838323324      2.4953060520     -0.6334425453
 H     -4.1466980014      2.8055035746     -0.0082846959
 H     -3.3657992121      3.1804091544     -1.2949952406
 O      3.0210798741     -0.0717830531      2.0867318801
 H      3.4791269316     -0.7681102882      1.5807603434
 H      3.5463156267      0.0636582758      2.8838634334
 O     -3.9411640221     -0.2804339639     -1.5453863730
 H     -4.6288964031     -0.6048968792     -0.9484968372
 H     -3.8788736146      0.6852589043     -1.2980509937
 O      2.0545935689      2.2726584418     -2.4220839689
 H      1.7252601657      3.1652572269     -2.5516339530
 H      2.7706197181      2.1438310638     -3.0425998016
43
# ORCA AIMD Position Step 48, t=24.00 fs, E_Pot=-171008.00735263 kJ mol^-1, Unit is Angstrom
Zn     -0.0099635989     -0.0549848635      0.0283349760
 N      0.1216062726     -0.6596808109      1.9575662945
 C     -0.6338395042     -1.8791680929      1.9308034006
 C     -1.9700477648     -1.5712216635      1.2449905458
 N     -1.6801635531     -1.2305573780     -0.1360242354
 H      1.1104468349     -0.7837190030      2.2090232794
 H     -0.2398798354      0.0967296968      2.5647804123
 H     -0.0853427294     -2.5995051994      1.2955924168
 H     -0.8198531567     -2.3646807459      2.9369251732
 H     -2.3974728969     -0.6655466370      1.7417026370
 H     -2.6803083589     -2.4442686423      1.3705857839
 H     -1.5444270954     -2.0767149422     -0.6812455453
 H     -2.5483756194     -0.8894860180     -0.5432094612
 O     -0.0180955054      0.5181073663     -1.8402564612
 H     -0.7015080508      0.6039602201     -2.4661661213
 H      0.6603739910      1.1727531966     -2.1193553108
 O      1.6140599888      1.3347682380      0.2764182060
 H      2.0703742800      1.6632233771     -0.5083097779
 H      2.3069304679      1.0702061273      0.9208020927
 O      1.3880131881     -1.3410163468     -0.7549604497
 H      1.3931014394     -1.6975093234     -1.6442842576
 H      2.3080215509     -1.1150437703     -0.5248565107
 O     -1.2167091243      1.5433078856      0.5505866242
 H     -2.0277188993      1.8540368725      0.1123189422
 H     -0.6890183390      2.3132466202      0.7584055653
 O      4.1569880417     -1.9412734066      0.2961628147
 H      3.9144927642     -2.8505096306      0.1298088780
 H      4.4673393460     -1.5045282377     -0.5105147266
 O     -2.0718367334      0.7210699792     -3.5485959212
 H     -2.7000914938      0.3820366160     -2.8819301257
 H     -2.0736619603      0.0942532016     -4.2511496921
 O     -3.4844952728      2.4956922394     -0.6316270644
 H     -4.1393542362      2.7937382912     -0.0084093409
 H     -3.3618678833      3.1781999745     -1.2893281312
 O      3.0198479640     -0.0715953852      2.0864107099
 H      3.4810545103     -0.7712449227      1.5872950406
 H      3.5428152022      0.0636595742      2.8878514719
 O     -3.9428324552     -0.2829473603     -1.5460054673
 H     -4.6164539047     -0.6030138594     -0.9517222770
 H     -3.8851344221      0.6777663041     -1.2908664826
 O      2.0551866867      2.2700149731     -2.4250162612
 H      1.7237561978      3.1624944768     -2.5560023325
 H      2.7619604535      2.1424602139     -3.0384396554
43
# ORCA AIMD Position Step 49, t=24.50 fs, E_Pot=-171000.17513985 kJ mol^-1, Unit is Angstrom
Zn     -0.0103964416     -0.0559524733      0.0289246694
 N      0.1223575163     -0.6602284547      1.9570107877
 C     -0.6375313117     -1.8784019272      1.9286759796
 C     -1.9688918381     -1.5687930156      1.2474091415
 N     -1.6824570750     -1.2294160315     -0.1341157530
 H      1.1065364678     -0.7805215386      2.2146816753
 H     -0.2352315042      0.0873694535      2.5599720454
 H     -0.0793825031     -2.5929560276      1.2908841209
 H     -0.8169839822     -2.3708174158      2.9456062596
 H     -2.3980822446     -0.6560615974      1.7375236613
 H     -2.6889519977     -2.4536335250      1.3647798906
 H     -1.5490698427     -2.0795961785     -0.6880286847
 H     -2.5507450650     -0.8820792430     -0.5547149778
 O     -0.0184360907      0.5182470806     -1.8389587468
 H     -0.7033438433      0.5981847708     -2.4669734497
 H      0.6659776718      1.1684141467     -2.1288308416
 O      1.6139927935      1.3349128738      0.2763263977
 H      2.0852002541      1.6698069560     -0.5164581447
 H      2.3085118362      1.0773067951      0.9215219941
 O      1.3897508088     -1.3388630623     -0.7573885453
 H      1.3867186454     -1.6920017868     -1.6366378136
 H      2.3053560555     -1.1140519669     -0.5274441594
 O     -1.2157125352      1.5439587002      0.5509925958
 H     -2.0284201370      1.8476808258      0.1089344031
 H     -0.6896646565      2.3064890852      0.7585831944
 O      4.1598347793     -1.9409326027      0.2970854013
 H      3.9132353875     -2.8441584303      0.1319899885
 H      4.4700801281     -1.5005274778     -0.5099284704
 O     -2.0703275302      0.7231512314     -3.5490678709
 H     -2.6966531795      0.3876337063     -2.8915294603
 H     -2.0663366118      0.1110257380     -4.2471307178
 O     -3.4851330273      2.4959943671     -0.6298323004
 H     -4.1326883220      2.7824807760     -0.0079083505
 H     -3.3578583762      3.1764650538     -1.2840915480
 O      3.0186718628     -0.0714429461      2.0861342550
 H      3.4828656787     -0.7742031331      1.5937957750
 H      3.5388299566      0.0637512353      2.8912351876
 O     -3.9444777995     -0.2852762853     -1.5465685899
 H     -4.6049626787     -0.6020197804     -0.9549192273
 H     -3.8911441251      0.6688786866     -1.2843584095
 O      2.0556979891      2.2673904086     -2.4278648668
 H      1.7222105028      3.1598010520     -2.5603803081
 H      2.7546436348      2.1407196821     -3.0355352222
43
# ORCA AIMD Position Step 50, t=25.00 fs, E_Pot=-170990.69747607 kJ mol^-1, Unit is Angstrom
Zn     -0.0108319495     -0.0569025801      0.0295083912
 N      0.1232456589     -0.6606033914      1.9563991258
 C     -0.6412789518     -1.8778733596      1.9267251601
 C     -1.9678932347     -1.5664643004      1.2499756915
 N     -1.6847823293     -1.2283447274     -0.1322998474
 H      1.1019814123     -0.7776453325      2.2204700088
 H     -0.2309026619      0.0765192883      2.5551773955
 H     -0.0742057222     -2.5859755363      1.2872395689
 H     -0.8135471593     -2.3753668333      2.9518998644
 H     -2.3982871597     -0.6486608761      1.7326404972
 H     -2.6956565344     -2.4603534823      1.3586455969
 H     -1.5529799113     -2.0823520127     -0.6940096791
 H     -2.5526932447     -0.8737354381     -0.5664005028
 O     -0.0185018303      0.5184381712     -1.8375275505
 H     -0.7092554022      0.5929473546     -2.4711305154
 H      0.6711197700      1.1634242034     -2.1379076190
 O      1.6139810217      1.3350567266      0.2762030931
 H      2.0991885249      1.6760295642     -0.5237426139
 H      2.3092615955      1.0844365418      0.9218303596
 O      1.3915237599     -1.3367237938     -0.7596540383
 H      1.3803007928     -1.6869271570     -1.6306728525
 H      2.3024981920     -1.1133376414     -0.5299667875
 O     -1.2147365960      1.5445135840      0.5514154724
 H     -2.0292617781      1.8415972037      0.1052048307
 H     -0.6897033034      2.3011216282      0.7589799910
 O      4.1626619515     -1.9404527357      0.2980039548
 H      3.9120736403     -2.8387777006      0.1335560237
 H      4.4728734071     -1.4976716659     -0.5088349518
 O     -2.0688206326      0.7253709397     -3.5493425104
 H     -2.6935077393      0.3931091467     -2.9013264646
 H     -2.0590468114      0.1252736621     -4.2462224806
 O     -3.4856940808      2.4961664987     -0.6280966552
 H     -4.1275014291      2.7721880544     -0.0060803979
 H     -3.3537884083      3.1755065220     -1.2795161367
 O      3.0175646842     -0.0713278103      2.0859137313
 H      3.4845184151     -0.7769429279      1.6001988764
 H      3.5342897458      0.0639337383      2.8938856241
 O     -3.9460348554     -0.2873996189     -1.5471283151
 H     -4.5955204046     -0.6025577680     -0.9571936695
 H     -3.8967479582      0.6590995399     -1.2785834072
 O      2.0560666229      2.2648117165     -2.4305683810
 H      1.7206304186      3.1571198489     -2.5647143080
 H      2.7496411166      2.1384254106     -3.0347063852
43
# ORCA AIMD Position Step 51, t=25.50 fs, E_Pot=-170983.02774613 kJ mol^-1, Unit is Angstrom
Zn     -0.0112736834     -0.0578433769      0.0300909399
 N      0.1242713502     -0.6608550727      1.9556891342
 C     -0.6450739947     -1.8775914935      1.9249646863
 C     -1.9670982983     -1.5642368535      1.2526849021
 N     -1.6871774200     -1.2273498630     -0.1306139146
 H      1.0971221315     -0.7752138909      2.2264453318
 H     -0.2272895566      0.0649071495      2.5509394284
 H     -0.0699412291     -2.5785632187      1.2846807290
 H     -0.8095249816     -2.3782002398      2.9554521145
 H     -2.3980765405     -0.6434385796      1.7270858654
 H     -2.7001706998     -2.4640427533      1.3522473949
 H     -1.5562788379     -2.0845051716     -0.6988455290
 H     -2.5537441039     -0.8646553403     -0.5779599883
 O     -0.0183246372      0.5186966443     -1.8359954045
 H     -0.7185815018      0.5881450890     -2.4780466279
 H      0.6756084505      1.1575736749     -2.1465462464
 O      1.6140652055      1.3352305304      0.2759840589
 H      2.1117761622      1.6815216688     -0.5292878479
 H      2.3091892118      1.0916136855      0.9217704247
 O      1.3933192065     -1.3345614677     -0.7617206840
 H      1.3738102913     -1.6826360733     -1.6273272720
 H      2.2998790021     -1.1127860011     -0.5323692778
 O     -1.2137994612      1.5449417372      0.5518484709
 H     -2.0301259890      1.8357776452      0.1011607084
 H     -0.6888387177      2.2976340479      0.7597016543
 O      4.1655054074     -1.9398001309      0.2989294985
 H      3.9108842495     -2.8347342617      0.1344191525
 H      4.4757077893     -1.4959949048     -0.5071550721
 O     -2.0672658279      0.7278203735     -3.5493973772
 H     -2.6912336493      0.3982008563     -2.9108020589
 H     -2.0516975310      0.1363127505     -4.2494131658
 O     -3.4861438349      2.4961760924     -0.6264310945
 H     -4.1243571918      2.7630893310     -0.0023484536
 H     -3.3496364715      3.1755276942     -1.2756797045
 O      3.0165203981     -0.0712504956      2.0857525963
 H      3.4860018612     -0.7794720228      1.6065232848
 H      3.5291180627      0.0642223738      2.8957920784
 O     -3.9474698687     -0.2893373239     -1.5477399717
 H     -4.5889201864     -0.6051927261     -0.9578081572
 H     -3.9018813206      0.6489036301     -1.2734718376
 O      2.0562546504      2.2622671240     -2.4331173659
 H      1.7190103706      3.1543559930     -2.5690166417
 H      2.7475670736      2.1354215798     -3.0365158935
43
# ORCA AIMD Position Step 52, t=26.00 fs, E_Pot=-170979.69399855 kJ mol^-1, Unit is Angstrom
Zn     -0.0117270846     -0.0587864957      0.0306792713
 N      0.1254411268     -0.6610366306      1.9548292732
 C     -0.6489227246     -1.8775591866      1.9233973044
 C     -1.9665425694     -1.5621014342      1.2555383866
 N     -1.6896860961     -1.2264292476     -0.1290854333
 H      1.0923083711     -0.7733470756      2.2327032579
 H     -0.2248155345      0.0532737022      2.5478502668
 H     -0.0666737862     -2.5707351669      1.2831807888
 H     -0.8049069569     -2.3792398306      2.9560315687
 H     -2.3974718931     -0.6403881113      1.7209146521
 H     -2.7023427528     -2.4644403560      1.3456383828
 H     -1.5590814383     -2.0856705174     -0.7022583217
 H     -2.5534776805     -0.8549825898     -0.5891524650
 O     -0.0179560931      0.5190379958     -1.8344046896
 H     -0.7304253143      0.5836490126     -2.4869112348
 H      0.6793067728      1.1506720569     -2.1547583336
 O      1.6142763652      1.3354612211      0.2756150878
 H      2.1225618921      1.6860226932     -0.5324596819
 H      2.3083413250      1.0988677548      0.9214304119
 O      1.3951318081     -1.3323377857     -0.7635744121
 H      1.3671788612     -1.6793562395     -1.6272810849
 H      2.2979251535     -1.1122870275     -0.5346103163
 O     -1.2129095585      1.5452246349      0.5522892315
 H     -2.0308742755      1.8301905996      0.0968265425
 H     -0.6868910485      2.2963363974      0.7608081874
 O      4.1684074547     -1.9389493182      0.2998795622
 H      3.9095786425     -2.8322381630      0.1345206292
 H      4.4786188502     -1.4954911565     -0.5048766477
 O     -2.0656066017      0.7305716877     -3.5492401539
 H     -2.6903996970      0.4026611969     -2.9195146817
 H     -2.0441667533      0.1439577310     -4.2571842212
 O     -3.4864629234      2.4960019540     -0.6248321964
 H     -4.1235709298      2.7552787908      0.0036550620
 H     -3.3453880715      3.1766451256     -1.2725481920
 O      3.0155262285     -0.0712120358      2.0856499883
 H      3.4873166120     -0.7818156997      1.6128047943
 H      3.5232615084      0.0646486596      2.8970208580
 O     -3.9487724386     -0.2911283089     -1.5484471605
 H     -4.5856454925     -0.6103668577     -0.9562797305
 H     -3.9065089512      0.6387867158     -1.2689023790
 O      2.0562478454      2.2597301813     -2.4355315782
 H      1.7173465116      3.1514070506     -2.5733255495
 H      2.7486583493      2.1316147454     -3.0412197942
43
# ORCA AIMD Position Step 53, t=26.50 fs, E_Pot=-170981.34928995 kJ mol^-1, Unit is Angstrom
Zn     -0.0121777121     -0.0597020831      0.0312544476
 N      0.1267093547     -0.6611914453      1.9538063489
 C     -0.6526625362     -1.8777717768      1.9220877432
 C     -1.9662751831     -1.5601399904      1.2584075123
 N     -1.6922354874     -1.2256145198     -0.1278012012
 H      1.0880947603     -0.7722367724      2.2390702507
 H     -0.2239937874      0.0428434600      2.5466203524
 H     -0.0645856519     -2.5629014699      1.2827209335
 H     -0.7999140813     -2.3784293207      2.9535317277
 H     -2.3965615594     -0.6395198151      1.7145045759
 H     -2.7020364331     -2.4614188591      1.3391742158
 H     -1.5613650945     -2.0855301836     -0.7039040120
 H     -2.5515811543     -0.8452607169     -0.5992843163
 O     -0.0174760112      0.5194582057     -1.8328728844
 H     -0.7432525420      0.5795365405     -2.4964228087
 H      0.6819775505      1.1428962253     -2.1622246474
 O      1.6146247198      1.3357604219      0.2750704448
 H      2.1308130155      1.6891746198     -0.5327262353
 H      2.3068490938      1.1058936313      0.9209633012
 O      1.3968788938     -1.3301225661     -0.7651452674
 H      1.3606397033     -1.6772822831     -1.6307839953
 H      2.2971012493     -1.1117700642     -0.5365707327
 O     -1.2121044838      1.5453471537      0.5527199446
 H     -2.0313226506      1.8250485969      0.0924264733
 H     -0.6839384839      2.2973443412      0.7622419189
 O      4.1712770675     -1.9379283215      0.3008322535
 H      3.9081799390     -2.8314058453      0.1338420586
 H      4.4815497973     -1.4961232371     -0.5021709931
 O     -2.0638637934      0.7335367263     -3.5489213738
 H     -2.6915126665      0.4060872116     -2.9267721112
 H     -2.0366867929      0.1482677401     -4.2689646605
 O     -3.4866375638      2.4956463356     -0.6233533898
 H     -4.1251514121      2.7490547374      0.0117023057
 H     -3.3412440000      3.1788138250     -1.2701092894
 O      3.0146095151     -0.0712152583      2.0856049724
 H      3.4884143109     -0.7839074901      1.6187977198
 H      3.5169743075      0.0652377664      2.8976631115
 O     -3.9499019814     -0.2927486666     -1.5492392526
 H     -4.5858687761     -0.6180512162     -0.9525950328
 H     -3.9104176558      0.6297038030     -1.2649187867
 O      2.0560618562      2.2572794357     -2.4377496896
 H      1.7157153933      3.1483109530     -2.5775016190
 H      2.7526299924      2.1271770559     -3.0484597215
43
# ORCA AIMD Position Step 54, t=27.00 fs, E_Pot=-170986.43809299 kJ mol^-1, Unit is Angstrom
Zn     -0.0126325643     -0.0606047048      0.0318252932
 N      0.1280844751     -0.6613604869      1.9525744249
 C     -0.6563141341     -1.8782156540      1.9210205694
 C     -1.9663088873     -1.5583317816      1.2612955112
 N     -1.6948642891     -1.2248874658     -0.1267668541
 H      1.0847529347     -0.7719690137      2.2456657913
 H     -0.2251394335      0.0341308579      2.5476972383
 H     -0.0636613504     -2.5551445649      1.2831612010
 H     -0.7945711624     -2.3758206140      2.9480109090
 H     -2.3954420249     -0.6405967430      1.7079848619
 H     -2.6993155838     -2.4550011417      1.3329035496
 H     -1.5632186789     -2.0839524457     -0.7036904510
 H     -2.5478376367     -0.8355347197     -0.6082432521
 O     -0.0169470357      0.5199641655     -1.8314366384
 H     -0.7561679182      0.5756969635     -2.5057719717
 H      0.6836301932      1.1341604864     -2.1690469282
 O      1.6151200501      1.3361455315      0.2743184555
 H      2.1364412792      1.6909247503     -0.5299232166
 H      2.3048375033      1.1127166836      0.9205453924
 O      1.3985680886     -1.3278915343     -0.7664779510
 H      1.3541371286     -1.6762580736     -1.6376077786
 H      2.2976796822     -1.1111720422     -0.5382703970
 O     -1.2113688252      1.5453230272      0.5531481383
 H     -2.0313246241      1.8203024487      0.0879805566
 H     -0.6801402458      2.3004624802      0.7639277440
 O      4.1741542478     -1.9367402578      0.3018122269
 H      3.9067088354     -2.8320341268      0.1324126933
 H      4.4846142577     -1.4977879143     -0.4991739990
 O     -2.0619887406      0.7367226848     -3.5485085641
 H     -2.6948592424      0.4083683736     -2.9325033798
 H     -2.0291720891      0.1501228927     -4.2839470422
 O     -3.4866878820      2.4951170206     -0.6219587958
 H     -4.1287456806      2.7442248095      0.0215259499
 H     -3.3372304218      3.1819421858     -1.2681038792
 O      3.0137479424     -0.0712613737      2.0856080567
 H      3.4893163970     -0.7858004407      1.6245490036
 H      3.5102731978      0.0660454196      2.8979312883
 O     -3.9509062068     -0.2942710293     -1.5501136750
 H     -4.5891548085     -0.6282032175     -0.9470854912
 H     -3.9136408997      0.6220749618     -1.2613323212
 O      2.0557367388      2.2548677519     -2.4398451755
 H      1.7141189395      3.1449830206     -2.5816206918
 H      2.7588540708      2.1221848334     -3.0577582096
43
# ORCA AIMD Position Step 55, t=27.50 fs, E_Pot=-170992.28435902 kJ mol^-1, Unit is Angstrom
Zn     -0.0130926670     -0.0614965940      0.0323929915
 N      0.1295558677     -0.6615643057      1.9511156973
 C     -0.6598502109     -1.8788678070      1.9201917032
 C     -1.9666505134     -1.5566803516      1.2641654270
 N     -1.6975705792     -1.2242347240     -0.1259961842
 H      1.0825179894     -0.7726225261      2.2525136154
 H     -0.2284429433      0.0275224376      2.5513402900
 H     -0.0638749180     -2.5476878943      1.2843240349
 H     -0.7889880175     -2.3715319298      2.9396927497
 H     -2.3942561965     -0.6433014875      1.7016081145
 H     -2.6943399199     -2.4453718681      1.3269638056
 H     -1.5646766914     -2.0809388762     -0.7015923638
 H     -2.5421615582     -0.8259302408     -0.6158374380
 O     -0.0164329696      0.5205521343     -1.8301423388
 H     -0.7682783933      0.5720981241     -2.5141770418
 H      0.6843148104      1.1245434224     -2.1752626081
 O      1.6157586188      1.3366251099      0.2733451768
 H      2.1393715740      1.6912618408     -0.5240745169
 H      2.3024698497      1.1192598671      0.9203881864
 O      1.4001900707     -1.3256586047     -0.7676183855
 H      1.3477362639     -1.6759880498     -1.6470709857
 H      2.2998105533     -1.1104760584     -0.5397437643
 O     -1.2106881458      1.5451767252      0.5535797839
 H     -2.0307394110      1.8159765762      0.0835617300
 H     -0.6758367831      2.3052791772      0.7657145029
 O      4.1770355348     -1.9354140748      0.3028326480
 H      3.9052578835     -2.8337639702      0.1303066779
 H      4.4879159394     -1.5003433840     -0.4961151658
 O     -2.0599677140      0.7400751574     -3.5480802817
 H     -2.7004832663      0.4094553961     -2.9367854477
 H     -2.0216744562      0.1505882031     -4.3008095552
 O     -3.4866456454      2.4944360246     -0.6206215282
 H     -4.1337397818      2.7405981436      0.0325060294
 H     -3.3334491166      3.1858350047     -1.2662339371
 O      3.0129295893     -0.0713518376      2.0856477192
 H      3.4900360169     -0.7875258294      1.6300233035
 H      3.5032848485      0.0671278230      2.8980746453
 O     -3.9518376623     -0.2957517565     -1.5510364464
 H     -4.5947247745     -0.6404650653     -0.9404558215
 H     -3.9161869344      0.6163248097     -1.2580120815
 O      2.0553303219      2.2524762286     -2.4418747604
 H      1.7125809512      3.1413998669     -2.5857134981
 H      2.7664083426      2.1168285168     -3.0683311693
43
# ORCA AIMD Position Step 56, t=28.00 fs, E_Pot=-170996.37610737 kJ mol^-1, Unit is Angstrom
Zn     -0.0135513013     -0.0623651463      0.0329493639
 N      0.1310838725     -0.6617974073      1.9494595318
 C     -0.6631880097     -1.8796844606      1.9195997441
 C     -1.9672863943     -1.5552110362      1.2669313060
 N     -1.7002997406     -1.2236469175     -0.1255025130
 H      1.0815256043     -0.7742243864      2.2594993953
 H     -0.2338321210      0.0231566181      2.5574451827
 H     -0.0651451139     -2.5409047072      1.2859634303
 H     -0.7833885569     -2.3658393047      2.9291245102
 H     -2.3931986434     -0.6471629976      1.6957638020
 H     -2.6874873888     -2.4330564003      1.3215874930
 H     -1.5657310526     -2.0766946553     -0.6977361846
 H     -2.5346949536     -0.8166789797     -0.6218272698
 O     -0.0159992976      0.5212027491     -1.8290438336
 H     -0.7786944857      0.5687875439     -2.5209021268
 H      0.6841626149      1.1143554282     -2.1808498967
 O      1.6165158816      1.3371930786      0.2721673162
 H      2.1396457050      1.6902737657     -0.5155347356
 H      2.2999559169      1.1253373029      0.9207162507
 O      1.4017169393     -1.3234796560     -0.7686094877
 H      1.3416413829     -1.6760618374     -1.6580309916
 H      2.3034343844     -1.1097199555     -0.5410463010
 O     -1.2100514691      1.5449447653      0.5540167425
 H     -2.0294652232      1.8121667308      0.0793047689
 H     -0.6715374290      2.3111460882      0.7673841786
 O      4.1798655740     -1.9340108950      0.3038895576
 H      3.9039821800     -2.8360794033      0.1276704166
 H      4.4915210895     -1.5035733147     -0.4933127358
 O     -2.0578359824      0.7434721948     -3.5477134569
 H     -2.7080651289      0.4094119395     -2.9398784888
 H     -2.0143965329      0.1507699235     -4.3178308520
 O     -3.4865519997      2.4936437599     -0.6193303952
 H     -4.1392915272      2.7379906443      0.0436908909
 H     -3.3300725125      3.1901754289     -1.2641927833
 O      3.0121546232     -0.0714861319      2.0857098607
 H      3.4905823609     -0.7890920648      1.6350977698
 H      3.4962687770      0.0685234707      2.8983649285
 O     -3.9527440598     -0.2972204169     -1.5519449011
 H     -4.6014974863     -0.6541073258     -0.9337105451
 H     -3.9180566687      0.6127781930     -1.2549043293
 O      2.0549135054      2.2501229745     -2.4438663516
 H      1.7111457692      3.1376237338     -2.5897506674
 H      2.7741488699      2.1114146779     -3.0791318883
43
# ORCA AIMD Position Step 57, t=28.50 fs, E_Pot=-170997.27338140 kJ mol^-1, Unit is Angstrom
Zn     -0.0140127828     -0.0632191262      0.0334999861
 N      0.1326613865     -0.6620380342      1.9476213938
 C     -0.6663322544     -1.8806302781      1.9192130319
 C     -1.9681988712     -1.5539027079      1.2695762127
 N     -1.7030560939     -1.2230935334     -0.1252698323
 H      1.0817194414     -0.7767842987      2.2666456177
 H     -0.2411240661      0.0206862456      2.5657152760
 H     -0.0673643217     -2.5350050752      1.2878321640
 H     -0.7778774146     -2.3589866994      2.9168148115
 H     -2.3924573052     -0.6517061609      1.6907076646
 H     -2.6791370425     -2.4185041014      1.3168602659
 H     -1.5663866563     -2.0714850449     -0.6922933007
 H     -2.5255507637     -0.8077246984     -0.6262244670
 O     -0.0156921644      0.5219067921     -1.8281515534
 H     -0.7870101179      0.5657414855     -2.5255826813
 H      0.6833984222      1.1037295017     -2.1859731104
 O      1.6173747762      1.3378484857      0.2707918469
 H      2.1375214473      1.6881505836     -0.5047232667
 H      2.2974293300      1.1309255620      0.9217418554
 O      1.4031679414     -1.3213570573     -0.7695246257
 H      1.3359260464     -1.6760260963     -1.6694783160
 H      2.3083904991     -1.1089629701     -0.5423057110
 O     -1.2094276964      1.5446628347      0.5544729963
 H     -2.0274176273      1.8088677930      0.0752213418
 H     -0.6676738150      2.3174823552      0.7687528925
 O      4.1826566025     -1.9325628017      0.3050026974
 H      3.9030197654     -2.8384619891      0.1246163818
 H      4.4955835316     -1.5073189177     -0.4910166311
 O     -2.0555924840      0.7468740199     -3.5474559834
 H     -2.7172157557      0.4084284370     -2.9423223618
 H     -2.0073704180      0.1516581298     -4.3338159992
 O     -3.4864477519      2.4927647253     -0.6180414508
 H     -4.1446720709      2.7361328569      0.0543825142
 H     -3.3271809892      3.1947270970     -1.2616301573
 O      3.0114036896     -0.0716658811      2.0857816052
 H      3.4909858359     -0.7905487252      1.6397849747
 H      3.4893114571      0.0702940991      2.8990694838
 O     -3.9536948085     -0.2987315768     -1.5527948695
 H     -4.6085151666     -0.6686457642     -0.9277086993
 H     -3.9193349526      0.6114123968     -1.2519192552
 O      2.0545436211      2.2477678053     -2.4458931461
 H      1.7098124057      3.1336536434     -2.5938059787
 H      2.7811809649      2.1061121464     -3.0894234356
43
# ORCA AIMD Position Step 58, t=29.00 fs, E_Pot=-170994.64063563 kJ mol^-1, Unit is Angstrom
Zn     -0.0144692854     -0.0640448457      0.0340361283
 N      0.1342388968     -0.6622430855      1.9456822477
 C     -0.6692076275     -1.8816385551      1.9189979667
 C     -1.9693336951     -1.5527581938      1.2720154284
 N     -1.7057662345     -1.2225541516     -0.1252773570
 H      1.0829075943     -0.7802125980      2.2737577919
 H     -0.2497873512      0.0195828784      2.5754138197
 H     -0.0703460237     -2.5303547243      1.2896201323
 H     -0.7727143948     -2.3514696097      2.9037584279
 H     -2.3922475380     -0.6562991536      1.6868306242
 H     -2.6700178168     -2.4027117778      1.3129838686
 H     -1.5666113224     -2.0658320970     -0.6856661101
 H     -2.5151827077     -0.7991865584     -0.6289978836
 O     -0.0155592995      0.5226338167     -1.8274885545
 H     -0.7927680608      0.5630249647     -2.5278762070
 H      0.6823320830      1.0931180551     -2.1906939170
 O      1.6182882614      1.3385658349      0.2692776072
 H      2.1334702605      1.6852398223     -0.4925601973
 H      2.2950497897      1.1358659391      0.9236180185
 O      1.4045316466     -1.3193455809     -0.7704075485
 H      1.3308219681     -1.6754548515     -1.6801613312
 H      2.3142639400     -1.1083124251     -0.5436409546
 O     -1.2088015796      1.5443718752      0.5549510095
 H     -2.0246032264      1.8061626210      0.0714093033
 H     -0.6647463191      2.3235709821      0.7696162366
 O      4.1853482456     -1.9311372632      0.3061603274
 H      3.9025310782     -2.8403537536      0.1213415754
 H      4.5001445531     -1.5113384696     -0.4895061897
 O     -2.0533036260      0.7501603599     -3.5473418710
 H     -2.7271768062      0.4067864243     -2.9446810980
 H     -2.0008070198      0.1540161275     -4.3473935116
 O     -3.4863720000      2.4918432015     -0.6167477539
 H     -4.1490971889      2.7348333046      0.0636878043
 H     -3.3249187512      3.1991531266     -1.2582987588
 O      3.0106785272     -0.0718877349      2.0858503518
 H      3.4912681995     -0.7919027514      1.6439813876
 H      3.4826582158      0.0724454622      2.9003964177
 O     -3.9547264228     -0.3002851761     -1.5535230196
 H     -4.6147475650     -0.6832366770     -0.9233637693
 H     -3.9200894019      0.6120304078     -1.2490982958
 O      2.0542781659      2.2454329082     -2.4479668318
 H      1.7086051015      3.1296129045     -2.5978484812
 H      2.7865854304      2.1011979023     -3.0983346526
43
# ORCA AIMD Position Step 59, t=29.50 fs, E_Pot=-170989.09885608 kJ mol^-1, Unit is Angstrom
Zn     -0.0149292181     -0.0648584207      0.0345685127
 N      0.1358239993     -0.6623709901      1.9436669101
 C     -0.6718483582     -1.8826719476      1.9188969848
 C     -1.9706602858     -1.5517224330      1.2742581948
 N     -1.7084490627     -1.2219861788     -0.1254893253
 H      1.0848153343     -0.7844951936      2.2808671677
 H     -0.2594698857      0.0191226035      2.5859888819
 H     -0.0739871972     -2.5271129440      1.2910870305
 H     -0.7679738751     -2.3435958786      2.8906522989
 H     -2.3927560933     -0.6604768998      1.6843439719
 H     -2.6606837122     -2.3863069161      1.3099937692
 H     -1.5663729285     -2.0601634579     -0.6781168229
 H     -2.5037935248     -0.7908129300     -0.6303216865
 O     -0.0156337936      0.5233774182     -1.8270408399
 H     -0.7959066890      0.5606045068     -2.5276878075
 H      0.6812859508      1.0826183596     -2.1952716528
 O      1.6192335671      1.3393357388      0.2676499255
 H      2.1280257533      1.6819081113     -0.4797840154
 H      2.2928317225      1.1402059073      0.9264929946
 O      1.4058523254     -1.3174213102     -0.7713231026
 H      1.3263610363     -1.6739810363     -1.6893824098
 H      2.3207489527     -1.1078651414     -0.5452260581
 O     -1.2081377084      1.5440970490      0.5554691973
 H     -2.0209849032      1.8040255966      0.0678026762
 H     -0.6630568723      2.3290039007      0.7698438595
 O      4.1879802170     -1.9297436938      0.3073869932
 H      3.9026295632     -2.8413499894      0.1179255951
 H      4.5053775595     -1.5155604600     -0.4889252614
 O     -2.0509596920      0.7533422765     -3.5473804567
 H     -2.7374818089      0.4047495552     -2.9476087396
 H     -1.9946607936      0.1584377105     -4.3580084761
 O     -3.4863531684      2.4908859293     -0.6154018513
 H     -4.1521011312      2.7338865879      0.0712170331
 H     -3.3233158784      3.2033207280     -1.2539109972
 O      3.0099571038     -0.0721548982      2.0859098963
 H      3.4914639418     -0.7932036422      1.6477522657
 H      3.4762726863      0.0750364012      2.9025166413
 O     -3.9558987023     -0.3019195789     -1.5541016791
 H     -4.6195783073     -0.6976217991     -0.9212343926
 H     -3.9204350450      0.6142383989     -1.2464302396
 O      2.0541507416      2.2430588949     -2.4501609875
 H      1.7074921200      3.1254969908     -2.6019890599
 H      2.7898720485      2.0967237538     -3.1055129642
43
# ORCA AIMD Position Step 60, t=30.00 fs, E_Pot=-170982.16396724 kJ mol^-1, Unit is Angstrom
Zn     -0.0153890972     -0.0656546089      0.0350941549
 N      0.1373862421     -0.6623766135      1.9416544559
 C     -0.6742168862     -1.8836640154      1.9188456306
 C     -1.9721079126     -1.5507529362      1.2762563673
 N     -1.7110493279     -1.2213605895     -0.1258597370
 H      1.0870643720     -0.7895028902      2.2877989617
 H     -0.2695508467      0.0185884727      2.5965962733
 H     -0.0781132132     -2.5255208740      1.2919716840
 H     -0.7638597529     -2.3359191819      2.8786477170
 H     -2.3941412960     -0.6637091534      1.6835134580
 H     -2.6520468708     -2.3704759570      1.3080075781
 H     -1.5656245922     -2.0551167680     -0.6701320166
 H     -2.4919397938     -0.7825163606     -0.6303777420
 O     -0.0159442235      0.5241126626     -1.8268035499
 H     -0.7963436474      0.5585170690     -2.5249734667
 H      0.6806262201      1.0725999174     -2.1998520742
 O      1.6201579885      1.3401219777      0.2659911492
 H      2.1219932589      1.6787013259     -0.4676569383
 H      2.2907835170      1.1438892726      0.9303912099
 O      1.4071424758     -1.3156064486     -0.7723002889
 H      1.3226869294     -1.6713429172     -1.6963810211
 H      2.3273516333     -1.1077353967     -0.5471940550
 O     -1.2074205798      1.5438633285      0.5560322527
 H     -2.0166430652      1.8024960028      0.0644094161
 H     -0.6628769776      2.3333408374      0.7693286556
 O      4.1905270208     -1.9284182893      0.3086718178
 H      3.9034065898     -2.8411115515      0.1145202032
 H      4.5113035290     -1.5198545683     -0.4893583547
 O     -2.0486107506      0.7563599171     -3.5475698564
 H     -2.7474263547      0.4026254892     -2.9516397474
 H     -1.9890369225      0.1652330405     -4.3650499670
 O     -3.4864128854      2.4899166584     -0.6139958991
 H     -4.1532748485      2.7331664082      0.0765198368
 H     -3.3224310772      3.2070453061     -1.2483486438
 O      3.0092392739     -0.0724640003      2.0859574247
 H      3.4915997121     -0.7944560775      1.6510684336
 H      3.4702395355      0.0780479331      2.9054702224
 O     -3.9572315022     -0.3036187275     -1.5544943816
 H     -4.6224339988     -0.7112588679     -0.9217938951
 H     -3.9204742401      0.6174937041     -1.2440153720
 O      2.0541880557      2.2406492696     -2.4524837760
 H      1.7064623766      3.1214129955     -2.6062288642
 H      2.7906353328      2.0928183513     -3.1105683599
43
# ORCA AIMD Position Step 61, t=30.50 fs, E_Pot=-170976.11780316 kJ mol^-1, Unit is Angstrom
Zn     -0.0158477101     -0.0664324101      0.0356129720
 N      0.1389070096     -0.6622239916      1.9397110533
 C     -0.6762926783     -1.8845551793      1.9187709778
 C     -1.9736068746     -1.5497855980      1.2779819172
 N     -1.7135231166     -1.2206488238     -0.1263360110
 H      1.0892560874     -0.7951069527      2.2944034248
 H     -0.2794701763      0.0173307342      2.6064899167
 H     -0.0825892468     -2.5257395099      1.2920712569
 H     -0.7605338995     -2.3289648923      2.8688576701
 H     -2.3965041500     -0.6655999545      1.6845145840
 H     -2.6450384522     -2.3564004552      1.3071021642
 H     -1.5643215396     -2.0513022870     -0.6621745249
 H     -2.4801826364     -0.7741199178     -0.6294297010
 O     -0.0165084409      0.5248207772     -1.8267622547
 H     -0.7941450909      0.5567833026     -2.5198002576
 H      0.6806871425      1.0633425813     -2.2045921628
 O      1.6210106248      1.3408860013      0.2643885400
 H      2.1162685573      1.6762173842     -0.4574986242
 H      2.2888336441      1.1469105556      0.9352624022
 O      1.4084224315     -1.3139071442     -0.7733588605
 H      1.3198880538     -1.6673765466     -1.7006935133
 H      2.3336245051     -1.1080218381     -0.5496635399
 O     -1.2066364464      1.5436850923      0.5566454856
 H     -2.0116842512      1.8015922673      0.0611940959
 H     -0.6643407497      2.3363229307      0.7680203345
 O      4.1929825178     -1.9271778037      0.3100038189
 H      3.9049076208     -2.8394483003      0.1112406857
 H      4.5179237579     -1.5241633866     -0.4907663977
 O     -2.0462922350      0.7591854000     -3.5478969508
 H     -2.7564396799      0.4006822388     -2.9572101701
 H     -1.9839809415      0.1745211961     -4.3682715975
 O     -3.4865630801      2.4889466108     -0.6125217983
 H     -4.1524152654      2.7325876639      0.0793887867
 H     -3.3222779981      3.2102409770     -1.2415695977
 O      3.0085245649     -0.0728119819      2.0859961917
 H      3.4917014603     -0.7956598558      1.6539368139
 H      3.4645553443      0.0814477987      2.9091986230
 O     -3.9587366464     -0.3053638100     -1.5546799623
 H     -4.6229859021     -0.7237922509     -0.9252894495
 H     -3.9203144293      0.6211951274     -1.2419596239
 O      2.0544013421      2.2381987510     -2.4549420501
 H      1.7054919442      3.1174445579     -2.6105825961
 H      2.7887264413      2.0895314727     -3.1133542646
43
# ORCA AIMD Position Step 62, t=31.00 fs, E_Pot=-170973.42164189 kJ mol^-1, Unit is Angstrom
Zn     -0.0163068386     -0.0671959897      0.0361284549
 N      0.1403814402     -0.6618876152      1.9378825888
 C     -0.6780708407     -1.8852991974      1.9186005693
 C     -1.9751015876     -1.5487399276      1.2794270011
 N     -1.7158419686     -1.2198247717     -0.1268666759
 H      1.0910206060     -0.8012076763      2.3005715286
 H     -0.2887905904      0.0148180163      2.6150926967
 H     -0.0873509527     -2.5278624577      1.2912524194
 H     -0.7581091956     -2.3231662994      2.8622377492
 H     -2.3998887293     -0.6659222185      1.6874415444
 H     -2.6405166761     -2.3451279287      1.3073269331
 H     -1.5624252662     -2.0492330986     -0.6546164161
 H     -2.4690279358     -0.7653641424     -0.6277820117
 O     -0.0173353950      0.5254920524     -1.8268975886
 H     -0.7894812298      0.5554098207     -2.5123005751
 H      0.6817370746      1.0550010128     -2.2096412912
 O      1.6217494069      1.3415929745      0.2629211862
 H      2.1117087191      1.6750301099     -0.4505201583
 H      2.2868424323      1.1493097266      0.9410035924
 O      1.4097196782     -1.3123131338     -0.7745121262
 H      1.3180007827     -1.6619925063     -1.7021325125
 H      2.3392199080     -1.1088030530     -0.5527384950
 O     -1.2057720314      1.5435659359      0.5573162012
 H     -2.0062153051      1.8013183936      0.0580787993
 H     -0.6674653161      2.3378712723      0.7659136884
 O      4.1953628207     -1.9260181135      0.3113751903
 H      3.9071410671     -2.8363081863      0.1081563519
 H      4.5252398798     -1.5285083283     -0.4930045298
 O     -2.0440191977      0.7618250357     -3.5483419468
 H     -2.7641280255      0.3991274314     -2.9646599284
 H     -1.9794758306      0.1862931358     -4.3677363857
 O     -3.4868074077      2.4879723867     -0.6109680076
 H     -4.1494970472      2.7321094741      0.0798327645
 H     -3.3228349816      3.2129246907     -1.2335810002
 O      3.0078108641     -0.0731974019      2.0860350945
 H      3.4917926905     -0.7968106442      1.6563971367
 H      3.4591301048      0.0852033284      2.9135695984
 O     -3.9604232447     -0.3071404553     -1.5546507808
 H     -4.6211170971     -0.7350707338     -0.9317945100
 H     -3.9200595675      0.6247694516     -1.2403566350
 O      2.0547890839      2.2356893844     -2.4575474618
 H      1.7045463644      3.1136369955     -2.6150839589
 H      2.7842092292      2.0868366489     -3.1139387910
43
# ORCA AIMD Position Step 63, t=31.50 fs, E_Pot=-170975.81155563 kJ mol^-1, Unit is Angstrom
Zn     -0.0167664126     -0.0679463709      0.0366421178
 N      0.1418012347     -0.6613545837      1.9362129183
 C     -0.6795389755     -1.8858593340      1.9182734649
 C     -1.9765456506     -1.5475394905      1.2805851921
 N     -1.7179680614     -1.2188755814     -0.1274017086
 H      1.0920263663     -0.8076843595      2.3061759279
 H     -0.2971137058      0.0106693034      2.6219150149
 H     -0.0923688497     -2.5319121587      1.2894613722
 H     -0.7566774284     -2.3188781752      2.8595582649
 H     -2.4042523258     -0.6646194036      1.6922935670
 H     -2.6392253249     -2.3375770416      1.3087172801
 H     -1.5599313151     -2.0492942635     -0.6477758501
 H     -2.4590095440     -0.7560219382     -0.6257591072
 O     -0.0184169812      0.5261196227     -1.8271869391
 H     -0.7826545341      0.5544099992     -2.5027305867
 H      0.6839442391      1.0476825089     -2.2150717723
 O      1.6223402632      1.3422104100      0.2616626985
 H      2.1090406921      1.6756132172     -0.4477162518
 H      2.2846400791      1.1511353099      0.9474189620
 O      1.4110537530     -1.3108167090     -0.7757563933
 H      1.3170392573     -1.6552106076     -1.7007330490
 H      2.3438510485     -1.1101299495     -0.5564782118
 O     -1.2048230855      1.5435007186      0.5580471987
 H     -2.0003854825      1.8016738313      0.0549821073
 H     -0.6721418077      2.3380539292      0.7630585123
 O      4.1976797956     -1.9249282266      0.3127685198
 H      3.9100641417     -2.8317907169      0.1053233813
 H      4.5331914460     -1.5329341112     -0.4958261828
 O     -2.0418099995      0.7642890808     -3.5488752072
 H     -2.7701923034      0.3981235550     -2.9741739724
 H     -1.9754944132      0.2003237344     -4.3637760493
 O     -3.4871400255      2.4869862248     -0.6093350943
 H     -4.1446727100      2.7317418616      0.0780379461
 H     -3.3240497307      3.2151803881     -1.2245026420
 O      3.0071012561     -0.0736170530      2.0860872405
 H      3.4918930882     -0.7978877758      1.6584883563
 H      3.4538605577      0.0892497577      2.9183585575
 O     -3.9622826680     -0.3089229820     -1.5544106898
 H     -4.6169075255     -0.7450194977     -0.9411869443
 H     -3.9198096694      0.6276824737     -1.2392956686
 O      2.0553352785      2.2331167883     -2.4602909237
 H      1.7035934359      3.1100320231     -2.6197386400
 H      2.7773703379      2.0846672733     -3.1125690599
43
# ORCA AIMD Position Step 64, t=32.00 fs, E_Pot=-170983.07176313 kJ mol^-1, Unit is Angstrom
Zn     -0.0172193237     -0.0686731750      0.0371476768
 N      0.1431385716     -0.6606340050      1.9347586155
 C     -0.6806663950     -1.8862104075      1.9177569882
 C     -1.9778972580     -1.5461411480      1.2814433071
 N     -1.7198361076     -1.2178168630     -0.1278915075
 H      1.0920069937     -0.8143218308      2.3110265604
 H     -0.3040158311      0.0047347874      2.6265205910
 H     -0.0975904055     -2.5377574849      1.2867677240
 H     -0.7563003165     -2.3163415183      2.8612338943
 H     -2.4094010810     -0.6618512846      1.6988857772
 H     -2.6416196028     -2.3343983353      1.3112577854
 H     -1.5569230818     -2.0516389852     -0.6419432738
 H     -2.4507315496     -0.7460494879     -0.6236988736
 O     -0.0197084505      0.5266937421     -1.8275980499
 H     -0.7742409789      0.5538104003     -2.4916371950
 H      0.6873067541      1.0414991899     -2.2207987454
 O      1.6227617107      1.3427100589      0.2606762484
 H      2.1086926453      1.6781937896     -0.4495931924
 H      2.2820771963      1.1524293825      0.9541518001
 O      1.4124194987     -1.3094283520     -0.7770554204
 H      1.3169874456     -1.6472580573     -1.6968197146
 H      2.3472755321     -1.1119976123     -0.5608398351
 O     -1.2038069789      1.5434756995      0.5588272519
 H     -1.9944477301      1.8026361588      0.0518600550
 H     -0.6780607204      2.3371052612      0.7596019302
 O      4.1999152426     -1.9239028387      0.3141425224
 H      3.9135394013     -2.8262150944      0.1028113989
 H      4.5415697575     -1.5374436417     -0.4988693416
 O     -2.0397097095      0.7665675155     -3.5494482950
 H     -2.7743974222      0.3977850146     -2.9856398117
 H     -1.9720304019      0.2159692102     -4.3571143275
 O     -3.4875402912      2.4859877734     -0.6076560662
 H     -4.1383573034      2.7315485944      0.0744255560
 H     -3.3258163264      3.2171341128     -1.2146787925
 O      3.0064109477     -0.0740608539      2.0861674850
 H      3.4920179708     -0.7988451590      1.6602288296
 H      3.4487032852      0.0934448073      2.9232159159
 O     -3.9642643594     -0.3106556134     -1.5539821512
 H     -4.6107250326     -0.7535644111     -0.9529925307
 H     -3.9196627402      0.6294536368     -1.2388524251
 O      2.0560004383      2.2305207699     -2.4631089475
 H      1.7026173616      3.1066995200     -2.6244686204
 H      2.7688373473      2.0829315326     -3.1097230340
43
# ORCA AIMD Position Step 65, t=32.50 fs, E_Pot=-170992.65077030 kJ mol^-1, Unit is Angstrom
Zn     -0.0176690647     -0.0693832156      0.0376506588
 N      0.1443991573     -0.6597335400      1.9335259355
 C     -0.6814573994     -1.8863606659      1.9170391236
 C     -1.9791809501     -1.5444986282      1.2820216585
 N     -1.7214356782     -1.2166546785     -0.1283116783
 H      1.0908092527     -0.8210692406      2.3150869199
 H     -0.3093638284     -0.0030841479      2.6287731842
 H     -0.1031306834     -2.5452959754      1.2832812326
 H     -0.7569636942     -2.3155053276      2.8671886267
 H     -2.4151819018     -0.6579013518      1.7070680927
 H     -2.6477570027     -2.3356155270      1.3149476339
 H     -1.5534781736     -2.0561794296     -0.6371080743
 H     -2.4444437585     -0.7352608260     -0.6218298130
 O     -0.0211712922      0.5272249246     -1.8281009438
 H     -0.7648273091      0.5536193244     -2.4794882234
 H      0.6917452248      1.0363054237     -2.2267881873
 O      1.6230304105      1.3430953725      0.2599586096
 H      2.1106204382      1.6827218147     -0.4559747921
 H      2.2789619399      1.1532846892      0.9609624003
 O      1.4138379762     -1.3081209566     -0.7783893126
 H      1.3177723525     -1.6382868760     -1.6909184001
 H      2.3494732458     -1.1144016775     -0.5658287237
 O     -1.2027254195      1.5434676316      0.5596597115
 H     -1.9885171452      1.8041799830      0.0485961417
 H     -0.6849227619      2.3354042867      0.7556637809
 O      4.2021076389     -1.9229036652      0.3154880119
 H      3.9174601077     -2.8199129582      0.1005987912
 H      4.5503408742     -1.5421486996     -0.5018091157
 O     -2.0377058394      0.7687225790     -3.5500141273
 H     -2.7767922188      0.3981419368     -2.9990405230
 H     -1.9689488045      0.2327311598     -4.3486894940
 O     -3.4879868945      2.4849472040     -0.6059332964
 H     -4.1310096899      2.7316331788      0.0695454612
 H     -3.3280343710      3.2190204274     -1.2042995147
 O      3.0057389510     -0.0745285968      2.0862926502
 H      3.4921831522     -0.7996549127      1.6616887965
 H      3.4434929630      0.0977342313      2.9278896213
 O     -3.9663489614     -0.3123216172     -1.5533949566
 H     -4.6030401545     -0.7610106301     -0.9667797209
 H     -3.9197042543      0.6297856239     -1.2390468234
 O      2.0567450156      2.2278860941     -2.4659907214
 H      1.7015843976      3.1035991815     -2.6292928422
 H      2.7592784765      2.0814360342     -3.1060266797
43
# ORCA AIMD Position Step 66, t=33.00 fs, E_Pot=-171000.43033186 kJ mol^-1, Unit is Angstrom
Zn     -0.0181138329     -0.0700747307      0.0381505770
 N      0.1455738071     -0.6586804116      1.9325246888
 C     -0.6819067923     -1.8863345829      1.9161433399
 C     -1.9804384554     -1.5426124267      1.2823377487
 N     -1.7227442731     -1.2154176774     -0.1286469658
 H      1.0883858411     -0.8278155568      2.3182975037
 H     -0.3130545261     -0.0126635338      2.6286411022
 H     -0.1090818198     -2.5542911759      1.2792178366
 H     -0.7586125223     -2.3161548594      2.8768836086
 H     -2.4213362150     -0.6532052351      1.7165434643
 H     -2.6572671057     -2.3407974075      1.3197293504
 H     -1.5497637226     -2.0625522309     -0.6331872521
 H     -2.4403209118     -0.7236966874     -0.6203084838
 O     -0.0227321617      0.5277216492     -1.8286545603
 H     -0.7552935968      0.5538564900     -2.4670443489
 H      0.6970242508      1.0319513932     -2.2328737635
 O      1.6231808299      1.3433817525      0.2594799699
 H      2.1143836648      1.6888265099     -0.4660546622
 H      2.2751641351      1.1537837377      0.9675249337
 O      1.4153091208     -1.3068805995     -0.7797106666
 H      1.3192828566     -1.6286227526     -1.6838400096
 H      2.3505088542     -1.1172839925     -0.5713584023
 O     -1.2015982874      1.5434470365      0.5605361848
 H     -1.9827626918      1.8062519399      0.0451189596
 H     -0.6922747276      2.3334635149      0.7514374277
 O      4.2042712956     -1.9218991288      0.3167816569
 H      3.9216476197     -2.8133761761      0.0986697357
 H      4.5593733511     -1.5470979141     -0.5042915710
 O     -2.0358031259      0.7708052471     -3.5505076068
 H     -2.7775355689      0.3991589133     -3.0140984012
 H     -1.9661137061      0.2497546579     -4.3398295785
 O     -3.4884461994      2.4838415550     -0.6041961573
 H     -4.1233019998      2.7321444901      0.0641444781
 H     -3.3305637772      3.2210860069     -1.1937061223
 O      3.0050914361     -0.0750151246      2.0864773787
 H      3.4924023438     -0.8002755755      1.6629203471
 H      3.4381402952      0.1020151152      2.9320893234
 O     -3.9684815106     -0.3138822204     -1.5526977052
 H     -4.5946010032     -0.7677331495     -0.9817975726
 H     -3.9200134911      0.6284958663     -1.2398647099
 O      2.0575102982      2.2252321482     -2.4688826271
 H      1.7004788882      3.1007027199     -2.6341656290
 H      2.7496342590      2.0799623912     -3.1022987840
43
# ORCA AIMD Position Step 67, t=33.50 fs, E_Pot=-171003.02453709 kJ mol^-1, Unit is Angstrom
Zn     -0.0185558453     -0.0707521234      0.0386513061
 N      0.1466649575     -0.6575030426      1.9317415426
 C     -0.6820182621     -1.8861723158      1.9151085624
 C     -1.9817481248     -1.5404934412      1.2824181188
 N     -1.7237629688     -1.2141289490     -0.1288992312
 H      1.0847775389     -0.8345301900      2.3206649942
 H     -0.3151352799     -0.0238132411      2.6262563639
 H     -0.1156108435     -2.5645340064      1.2748138470
 H     -0.7611683338     -2.3179307911      2.8895116479
 H     -2.4276367446     -0.6482259349      1.7270502212
 H     -2.6695267072     -2.3491588005      1.3255580998
 H     -1.5459595885     -2.0702484167     -0.6299545062
 H     -2.4383112727     -0.7114244263     -0.6191673317
 O     -0.0243148928      0.5281997255     -1.8292163030
 H     -0.7466140005      0.5545507813     -2.4551064408
 H      0.7028702321      1.0281939526     -2.2388978759
 O      1.6232627999      1.3436002153      0.2591780180
 H      2.1193021349      1.6959867212     -0.4786933034
 H      2.2705649052      1.1540110714      0.9735928554
 O      1.4168408549     -1.3056798342     -0.7809732837
 H      1.3213829446     -1.6185736870     -1.6765399979
 H      2.3505784327     -1.1205829544     -0.5773541305
 O     -1.2004404689      1.5433804483      0.5614537968
 H     -1.9772735673      1.8087982259      0.0413434939
 H     -0.6996769844      2.3318587911      0.7470979616
 O      4.2064404331     -1.9208466346      0.3180151685
 H      3.9259419792     -2.8070931727      0.0969743830
 H      4.5686289315     -1.5523620716     -0.5060219646
 O     -2.0339813023      0.7728975814     -3.5508601185
 H     -2.7769573240      0.4007388795     -3.0305511622
 H     -1.9633224833      0.2662142726     -4.3320280587
 O     -3.4888834376      2.4826358614     -0.6024644440
 H     -4.1159285385      2.7332657592      0.0590260852
 H     -3.3332768962      3.2236016512     -1.1831529882
 O      3.0044669507     -0.0755200558      2.0867351336
 H      3.4926921486     -0.8006730335      1.6639863250
 H      3.4325361416      0.1062299334      2.9356085271
 O     -3.9706151766     -0.3153117304     -1.5519450826
 H     -4.5862665794     -0.7743277090     -0.9972756763
 H     -3.9206650933      0.6255333355     -1.2412544225
 O      2.0582373536      2.2225575026     -2.4717507582
 H      1.6992826449      3.0979327974     -2.6390786125
 H      2.7408619114      2.0782554317     -3.0994253118
43
# ORCA AIMD Position Step 68, t=34.00 fs, E_Pot=-170999.71833373 kJ mol^-1, Unit is Angstrom
Zn     -0.0189909001     -0.0714097942      0.0391492676
 N      0.1476603958     -0.6562562136      1.9311613470
 C     -0.6817972941     -1.8859249069      1.9140015877
 C     -1.9831824560     -1.5382006700      1.2822912733
 N     -1.7244883131     -1.2128302595     -0.1290772492
 H      1.0801777945     -0.8411063235      2.3221949194
 H     -0.3157360805     -0.0360408494      2.6219405322
 H     -0.1227961589     -2.5756379489      1.2704013806
 H     -0.7644937391     -2.3203695745      2.9038869576
 H     -2.4337636611     -0.6435135565      1.7381544536
 H     -2.6835424402     -2.3595695877      1.3322807851
 H     -1.5423287592     -2.0785285635     -0.6271728412
 H     -2.4382281922     -0.6988141508     -0.6183503661
 O     -0.0258108701      0.5286687652     -1.8297316967
 H     -0.7399981430      0.5557319011     -2.4447389869
 H      0.7088835823      1.0248207730     -2.2445947583
 O      1.6233273874      1.3437841724      0.2589820177
 H      2.1245245688      1.7034973289     -0.4924089861
 H      2.2651661572      1.1540379582      0.9788721842
 O      1.4184140446     -1.3045080677     -0.7821057409
 H      1.3238815080     -1.6086311802     -1.6702129033
 H      2.3499804316     -1.1241677219     -0.5836248957
 O     -1.1992863763      1.5432354441      0.5623949197
 H     -1.9721819290      1.8117114973      0.0372635675
 H     -0.7065773454      2.3312059598      0.7428838274
 O      4.2086163235     -1.9197206362      0.3191662056
 H      3.9301202344     -2.8016452075      0.0954835369
 H      4.5779584011     -1.5579062288     -0.5067381984
 O     -2.0322387103      0.7750562588     -3.5509984638
 H     -2.7755452233      0.4026927718     -3.0478040684
 H     -1.9603853651      0.2810336699     -4.3269713951
 O     -3.4892565555      2.4813139410     -0.6007858201
 H     -4.1097013470      2.7351717635      0.0550868104
 H     -3.3360094227      3.2267733830     -1.1730235457
 O      3.0038708365     -0.0760363304      2.0870720076
 H      3.4930677774     -0.8008115595      1.6649299410
 H      3.4266888095      0.1102722073      2.9382535741
 O     -3.9726654296     -0.3165646042     -1.5512103609
 H     -4.5791314187     -0.7814116708     -1.0121388832
 H     -3.9217202833      0.6210257069     -1.2431019314
 O      2.0588572508      2.2199005470     -2.4745197753
 H      1.6980033045      3.0952366040     -2.6439501890
 H      2.7340232776      2.0760901103     -3.0983250094
43
# ORCA AIMD Position Step 69, t=34.50 fs, E_Pot=-170992.98045884 kJ mol^-1, Unit is Angstrom
Zn     -0.0194191750     -0.0720487419      0.0396455897
 N      0.1485614037     -0.6549921556      1.9307465705
 C     -0.6812567545     -1.8856444530      1.9128825158
 C     -1.9848263894     -1.5357811339      1.2819894928
 N     -1.7249378433     -1.2115464465     -0.1291990337
 H      1.0748432028     -0.8475255135      2.3229536416
 H     -0.3151333830     -0.0488211785      2.6161621273
 H     -0.1307640707     -2.5872998988      1.2662780425
 H     -0.7684598994     -2.3230049727      2.9188847493
 H     -2.4394773222     -0.6395377808      1.7495219519
 H     -2.6983737697     -2.3709077879      1.3397744712
 H     -1.5391030830     -2.0866888795     -0.6245592768
 H     -2.4397247732     -0.6862194745     -0.6177045989
 O     -0.0271299372      0.5291422110     -1.8301550232
 H     -0.7365113426      0.5574441110     -2.4368468952
 H      0.7147031638      1.0215864560     -2.2497532806
 O      1.6234198996      1.3439690979      0.2588169324
 H      2.1292883011      1.7107416949     -0.5058911408
 H      2.2589894371      1.1539237928      0.9831958539
 O      1.4200196880     -1.3033450267     -0.7830505153
 H      1.3265975531     -1.5991725080     -1.6659782250
 H      2.3490990245     -1.1279240234     -0.5900162831
 O     -1.1981586304      1.5429848296      0.5633503475
 H     -1.9675199905      1.8148912705      0.0328683149
 H     -0.7125515872      2.3320306821      0.7389686423
 O      4.2108181137     -1.9184918730      0.3202290523
 H      3.9340221436     -2.7974838249      0.0941605353
 H      4.5873336175     -1.5637115050     -0.5062766239
 O     -2.0305470544      0.7773514013     -3.5508703898
 H     -2.7739173986      0.4047815966     -3.0653587357
 H     -1.9570842310      0.2934724495     -4.3260481045
 O     -3.4895335617      2.4798547074     -0.5991879616
 H     -4.1052514567      2.7380118581      0.0530641601
 H     -3.3386383821      3.2307615159     -1.1635386109
 O      3.0032994901     -0.0765624859      2.0874915985
 H      3.4935506397     -0.8006682043      1.6657993332
 H      3.4205947944      0.1140945312      2.9399502139
 O     -3.9745704980     -0.3176170620     -1.5505594082
 H     -4.5741831995     -0.7896876906     -1.0255082184
 H     -3.9232411087      0.6152155413     -1.2452610828
 O      2.0593200217      2.2172715259     -2.4771525768
 H      1.6966471971      3.0925243467     -2.6487500070
 H      2.7298985382      2.0732681821     -3.0997182506
43
# ORCA AIMD Position Step 70, t=35.00 fs, E_Pot=-170986.79516177 kJ mol^-1, Unit is Angstrom
Zn     -0.0198342472     -0.0726600209      0.0401334504
 N      0.1493591560     -0.6537898470      1.9304522801
 C     -0.6804253431     -1.8853843955      1.9118241485
 C     -1.9867275649     -1.5333204947      1.2815514381
 N     -1.7251312362     -1.2103150807     -0.1292828453
 H      1.0691947933     -0.8536911065      2.3230305309
 H     -0.3137329362     -0.0613115039      2.6096375861
 H     -0.1394824697     -2.5990370328      1.2627887420
 H     -0.7728684009     -2.3253621969      2.9332098634
 H     -2.4444850442     -0.6367574354      1.7606589867
 H     -2.7128974099     -2.3819388837      1.3477769854
 H     -1.5365477451     -2.0939408539     -0.6218980621
 H     -2.4423421612     -0.6742515110     -0.6170358943
 O     -0.0281810035      0.5296240921     -1.8304477352
 H     -0.7369871392      0.5597030476     -2.4322192679
 H      0.7198971992      1.0183240775     -2.2541062321
 O      1.6235717708      1.3441833656      0.2586172739
 H      2.1328902213      1.7170804009     -0.5178131299
 H      2.2522231107      1.1537120221      0.9864143697
 O      1.4216195246     -1.3021942248     -0.7837483710
 H      1.3293224270     -1.5906379981     -1.6648228413
 H      2.3483784232     -1.1316738626     -0.5962654694
 O     -1.1970931522      1.5426173005      0.5642966729
 H     -1.9633434876      1.8181725054      0.0282513960
 H     -0.7172037232      2.3346728667      0.7355404453
 O      4.2130253202     -1.9171614222      0.3211859058
 H      3.9374702685     -2.7949847432      0.0930134507
 H      4.5966157536     -1.5696329708     -0.5045770150
 O     -2.0288965269      0.7797960168     -3.5504618388
 H     -2.7727927248      0.4066904964     -3.0824259093
 H     -1.9532984049      0.3029733240     -4.3300929685
 O     -3.4896913571      2.4782721526     -0.5977134724
 H     -4.1030401692      2.7418051966      0.0534758125
 H     -3.3410261389      3.2355587912     -1.1549770554
 O      3.0027552515     -0.0770895642      2.0879852738
 H      3.4941582452     -0.8002344536      1.6666217497
 H      3.4143904619      0.1176122740      2.9406934785
 O     -3.9762530192     -0.3184458453     -1.5500571343
 H     -4.5722636470     -0.7995951970     -1.0365125414
 H     -3.9252601841      0.6085707455     -1.2475089917
 O      2.0595918563      2.2147166335     -2.4795914421
 H      1.6952521289      3.0897482477     -2.6533811471
 H      2.7289535146      2.0697224790     -3.1039640969
43
# ORCA AIMD Position Step 71, t=35.50 fs, E_Pot=-170983.64237070 kJ mol^-1, Unit is Angstrom
Zn     -0.0202437194     -0.0732553009      0.0406221520
 N      0.1500763266     -0.6526917596      1.9302121090
 C     -0.6793133902     -1.8851825007      1.9108540814
 C     -1.9889773216     -1.5308188270      1.2810022348
 N     -1.7251024230     -1.2091238205     -0.1293480354
 H      1.0635212111     -0.8597317494      2.3225487578
 H     -0.3119942276     -0.0730078912      2.6029914217
 H     -0.1491595629     -2.6107775123      1.2601203993
 H     -0.7776650399     -2.3271118834      2.9461949924
 H     -2.4487129850     -0.6354316805      1.7714794360
 H     -2.7265973783     -2.3919476435      1.3562746979
 H     -1.5348033960     -2.0998496270     -0.6189403813
 H     -2.4456706384     -0.6631313287     -0.6161141742
 O     -0.0289443086      0.5301319244     -1.8306053745
 H     -0.7417561198      0.5625840081     -2.4310567185
 H      0.7242601636      1.0148033878     -2.2575805909
 O      1.6238044761      1.3444561384      0.2583219423
 H      2.1349280413      1.7222161137     -0.5275173874
 H      2.2449027970      1.1534194330      0.9885856881
 O      1.4232259133     -1.3010296193     -0.7841891932
 H      1.3319784442     -1.5830278605     -1.6672811164
 H      2.3482343607     -1.1353709596     -0.6023261946
 O     -1.1960824966      1.5421265381      0.5652439204
 H     -1.9595198810      1.8214892867      0.0233882173
 H     -0.7204689660      2.3392966308      0.7326067391
 O      4.2152844904     -1.9157008394      0.3220555069
 H      3.9404657549     -2.7942361468      0.0920472023
 H      4.6060146577     -1.5756913690     -0.5016306656
 O     -2.0272173578      0.7824524870     -3.5497942377
 H     -2.7728387422      0.4081631389     -3.0988383542
 H     -1.9488650227      0.3098106136     -4.3392331734
 O     -3.4897313866      2.4765441966     -0.5963396246
 H     -4.1031104765      2.7465666527      0.0564852315
 H     -3.3431499210      3.2411883985     -1.1472209663
 O      3.0022193351     -0.0776269125      2.0885547399
 H      3.4949311772     -0.7995027224      1.6674437681
 H      3.4080477304      0.1208843511      2.9406049433
 O     -3.9777188566     -0.3190824241     -1.5497296116
 H     -4.5737220813     -0.8115968766     -1.0450312192
 H     -3.9278694406      0.6014547119     -1.2496607803
 O      2.0596794459      2.2121891598     -2.4818879703
 H      1.6938180795      3.0867766764     -2.6579139935
 H      2.7311181764      2.0653858091     -3.1111035203
43
# ORCA AIMD Position Step 72, t=36.00 fs, E_Pot=-170983.50808391 kJ mol^-1, Unit is Angstrom
Zn     -0.0206449463     -0.0738310299      0.0411086972
 N      0.1507186813     -0.6517710640      1.9299613505
 C     -0.6779576173     -1.8850747098      1.9100159193
 C     -1.9916018154     -1.5283320209      1.2803765746
 N     -1.7248826881     -1.2079827678     -0.1294069727
 H      1.0582742230     -0.8656334171      2.3216434680
 H     -0.3104614938     -0.0830713906      2.5970690488
 H     -0.1597410504     -2.6221894194      1.2585017060
 H     -0.7826926408     -2.3279390404      2.9569868413
 H     -2.4520096402     -0.6357867354      1.7816612515
 H     -2.7387378866     -2.4001168237      1.3650484016
 H     -1.5340345151     -2.1039334216     -0.6155724587
 H     -2.4492545764     -0.6533563319     -0.6147400259
 O     -0.0294140085      0.5306688700     -1.8306429226
 H     -0.7505732389      0.5660894875     -2.4332072745
 H      0.7275209234      1.0109256187     -2.2600449298
 O      1.6241219301      1.3448052199      0.2578856051
 H      2.1350759784      1.7258171882     -0.5343053711
 H      2.2372915346      1.1530462385      0.9897745086
 O      1.4248109121     -1.2998634353     -0.7843749936
 H      1.3344766851     -1.5763859521     -1.6734218052
 H      2.3490493597     -1.1388926977     -0.6080170226
 O     -1.1951371652      1.5415327707      0.5661809492
 H     -1.9559846715      1.8246891503      0.0183973905
 H     -0.7223406778      2.3457314247      0.7301970419
 O      4.2175806949     -1.9141290437      0.3228356117
 H      3.9429884315     -2.7951848058      0.0913377667
 H      4.6155489798     -1.5817368843     -0.4975593880
 O     -2.0254815042      0.7852912488     -3.5489419135
 H     -2.7746477487      0.4089328252     -3.1141132271
 H     -1.9438045454      0.3144778507     -4.3526994176
 O     -3.4896701482      2.4747039447     -0.5950638949
 H     -4.1052254403      2.7520839069      0.0618851833
 H     -3.3449600533      3.2474352332     -1.1402679981
 O      3.0016840602     -0.0781715376      2.0891847432
 H      3.4958992192     -0.7984876498      1.6682830748
 H      3.4017280975      0.1239044715      2.9398703376
 O     -3.9789622944     -0.3195665917     -1.5495906925
 H     -4.5784713223     -0.8255221019     -1.0510884583
 H     -3.9311113207      0.5944712726     -1.2514490582
 O      2.0596112311      2.2096984055     -2.4840586744
 H      1.6923849287      3.0835614712     -2.6623167636
 H      2.7358919734      2.0603887602     -3.1206537582
43
# ORCA AIMD Position Step 73, t=36.50 fs, E_Pot=-170984.63658556 kJ mol^-1, Unit is Angstrom
Zn     -0.0210336452     -0.0743813080      0.0415877637
 N      0.1512907930     -0.6510976129      1.9296387622
 C     -0.6764097295     -1.8850868921      1.9093450721
 C     -1.9945918569     -1.5259219491      1.2797109574
 N     -1.7245069836     -1.2068989294     -0.1294651401
 H      1.0539066998     -0.8713581438      2.3204604388
 H     -0.3096617558     -0.0907000364      2.5926931624
 H     -0.1710628602     -2.6329352477      1.2580988865
 H     -0.7877779939     -2.3276141207      2.9648970395
 H     -2.4542718504     -0.6379136380      1.7908943873
 H     -2.7486971624     -2.4057965046      1.3738329386
 H     -1.5343490650     -2.1058740683     -0.6117785733
 H     -2.4526724963     -0.6453952553     -0.6127646377
 O     -0.0296237578      0.5312328360     -1.8305997328
 H     -0.7625888314      0.5701746905     -2.4380490629
 H      0.7294876790      1.0066707560     -2.2614277451
 O      1.6245129209      1.3452397659      0.2572778362
 H      2.1331925763      1.7276762404     -0.5377362005
 H      2.2297390582      1.1525752272      0.9901329877
 O      1.4263422598     -1.2987218352     -0.7843403185
 H      1.3367793115     -1.5706102534     -1.6827223258
 H      2.3510846962     -1.1421305033     -0.6131687624
 O     -1.1942628297      1.5408761291      0.5670948501
 H     -1.9526610541      1.8276074197      0.0134416819
 H     -0.7229789552      2.3534998957      0.7282890516
 O      4.2198818643     -1.9124866377      0.3235240260
 H      3.9450742189     -2.7975581859      0.0909993293
 H      4.6252274257     -1.5875758551     -0.4925961348
 O     -2.0236777472      0.7882425244     -3.5480118011
 H     -2.7785695673      0.4088268241     -3.1278758159
 H     -1.9382454705      0.3177799783     -4.3690135963
 O     -3.4895415599      2.4728080458     -0.5938741944
 H     -4.1088316439      2.7579928007      0.0691064027
 H     -3.3464324542      3.2539471467     -1.1340558407
 O      3.0011424075     -0.0787185291      2.0898526101
 H      3.4970880459     -0.7972223325      1.6691453256
 H      3.3956471614      0.1266757629      2.9387535177
 O     -3.9800032913     -0.3199636160     -1.5496293955
 H     -4.5859033909     -0.8407235238     -1.0550870637
 H     -3.9350066405      0.5882767072     -1.2525941551
 O      2.0594393200      2.2072582004     -2.4861308714
 H      1.6910000880      3.0800940527     -2.6665526851
 H      2.7423829789      2.0549780556     -3.1317436835
43
# ORCA AIMD Position Step 74, t=37.00 fs, E_Pot=-170985.27038279 kJ mol^-1, Unit is Angstrom
Zn     -0.0214107359     -0.0749076242      0.0420601418
 N      0.1518026035     -0.6507166445      1.9291926095
 C     -0.6747088077     -1.8852335136      1.9088566195
 C     -1.9979538942     -1.5236142361      1.2790308276
 N     -1.7240057324     -1.2058578086     -0.1295210704
 H      1.0507399012     -0.8769326905      2.3191185988
 H     -0.3099841747     -0.0953954026      2.5904374554
 H     -0.1830466221     -2.6428759446      1.2589923765
 H     -0.7928259578     -2.3259961292      2.9695680843
 H     -2.4554924496     -0.6417907535      1.7990579074
 H     -2.7561574065     -2.4086209941      1.3824782616
 H     -1.5357933072     -2.1055808515     -0.6075809987
 H     -2.4556302888     -0.6395073115     -0.6100765496
 O     -0.0296402888      0.5318258982     -1.8305283635
 H     -0.7767381133      0.5748162204     -2.4447313051
 H      0.7301021499      1.0020292975     -2.2617497773
 O      1.6249594315      1.3457671222      0.2564747368
 H      2.1292928183      1.7277514206     -0.5377025809
 H      2.2225257873      1.1519674267      0.9898906902
 O      1.4278140953     -1.2976214580     -0.7841451987
 H      1.3389308647     -1.5653942994     -1.6943249172
 H      2.3544608103     -1.1450554272     -0.6177269667
 O     -1.1934466368      1.5402001907      0.5679866410
 H     -1.9494177707      1.8301281910      0.0086285160
 H     -0.7226802880      2.3620225405      0.7267906049
 O      4.2221803666     -1.9108038380      0.3241305105
 H      3.9468397192     -2.8009469584      0.0911615865
 H      4.6352070008     -1.5930853843     -0.4869795520
 O     -2.0217880083      0.7912582797     -3.5471037933
 H     -2.7846816770      0.4078136576     -3.1401379444
 H     -1.9322994712      0.3206777931     -4.3866055685
 O     -3.4893880218      2.4708982521     -0.5927335663
 H     -4.1132347841      2.7639267461      0.0774584190
 H     -3.3475883711      3.2603871127     -1.1283809199
 O      3.0005798024     -0.0792703890      2.0905416210
 H      3.4985364904     -0.7957343075      1.6700397701
 H      3.3899506134      0.1292543991      2.9375471304
 O     -3.9808969040     -0.3203589157     -1.5498169034
 H     -4.5951602495     -0.8564519278     -1.0577430936
 H     -3.9396184114      0.5833829192     -1.2528585651
 O      2.0592251786      2.2048465257     -2.4881684104
 H      1.6896886397      3.0763524589     -2.6706533382
 H      2.7496066596      2.0493797623     -3.1434756822
43
# ORCA AIMD Position Step 75, t=37.50 fs, E_Pot=-170984.62161423 kJ mol^-1, Unit is Angstrom
Zn     -0.0217796097     -0.0754147913      0.0425296520
 N      0.1522605782     -0.6506548239      1.9285887905
 C     -0.6728849736     -1.8855212960      1.9085557696
 C     -2.0017040986     -1.5214168171      1.2783532719
 N     -1.7234019869     -1.2048320289     -0.1295656558
 H      1.0489827821     -0.8823973386      2.3176973390
 H     -0.3116267270     -0.0969307747      2.5905926014
 H     -0.1956530876     -2.6519895359      1.2612123024
 H     -0.7977908756     -2.3229942438      2.9708287880
 H     -2.4557158731     -0.6473216653      1.8061382918
 H     -2.7609636916     -2.4083820337      1.3908966990
 H     -1.5383825287     -2.1031186302     -0.6030495550
 H     -2.4579432486     -0.6358333253     -0.6066012343
 O     -0.0295426968      0.5324513439     -1.8304820436
 H     -0.7919584289      0.5800098774     -2.4523873719
 H      0.7293980122      0.9970177440     -2.2610854913
 O      1.6254377740      1.3463924874      0.2554586798
 H      2.1234963063      1.7261027323     -0.5343072550
 H      2.2158922464      1.1511665278      0.9893071511
 O      1.4292385465     -1.2965734535     -0.7838592029
 H      1.3410202176     -1.5603435901     -1.7072290474
 H      2.3591615801     -1.1476906062     -0.6217042050
 O     -1.1926669149      1.5395489396      0.5688644163
 H     -1.9461081802      1.8321605568      0.0040325148
 H     -0.7217876584      2.3706886242      0.7255846776
 O      4.2244808541     -1.9091043393      0.3246694445
 H      3.9484404737     -2.8048852073      0.0919684567
 H      4.6457295337     -1.5981827755     -0.4809357709
 O     -2.0197993858      0.7943061081     -3.5462988505
 H     -2.7928060833      0.4059915866     -3.1511570628
 H     -1.9260515368      0.3240822528     -4.4040540761
 O     -3.4892531541      2.4690064196     -0.5915951516
 H     -4.1177273740      2.7695350671      0.0862517558
 H     -3.3484661715      3.2664355133     -1.1229866822
 O      2.9999780629     -0.0798335302      2.0912397061
 H      3.5002944359     -0.7940430127      1.6709767216
 H      3.3847452898      0.1317189712      2.9365402854
 O     -3.9817104121     -0.3208400073     -1.5501192436
 H     -4.6053368818     -0.8719413088     -1.0598553558
 H     -3.9450474823      0.5801485137     -1.2520458824
 O      2.0590288394      2.2024237364     -2.4902480969
 H      1.6884590697      3.0723157187     -2.6746858787
 H      2.7566398023      2.0437856318     -3.1550366848
43
# ORCA AIMD Position Step 76, t=38.00 fs, E_Pot=-170982.82613231 kJ mol^-1, Unit is Angstrom
Zn     -0.0221418732     -0.0759050078      0.0429978893
 N      0.1526600931     -0.6509228967      1.9278202297
 C     -0.6709779702     -1.8859481742      1.9084449079
 C     -2.0058329648     -1.5193474363      1.2776944219
 N     -1.7227165080     -1.2037932297     -0.1295813910
 H      1.0487485447     -0.8877340965      2.3162423129
 H     -0.3145493387     -0.0953342315      2.5931382582
 H     -0.2087510399     -2.6602586984      1.2647319245
 H     -0.8026205022     -2.3185770216      2.9686230285
 H     -2.4550210310     -0.6542951965      1.8121366916
 H     -2.7630188933     -2.4049731403      1.3989655837
 H     -1.5420897942     -2.0987052085     -0.5983467067
 H     -2.4595031640     -0.6344635264     -0.6023301602
 O     -0.0294127322      0.5331068342     -1.8305076570
 H     -0.8071858161      0.5857279875     -2.4601852943
 H      0.7274967199      0.9917296809     -2.2595570078
 O      1.6259145461      1.3471125290      0.2542290566
 H      2.1160711781      1.7228916366     -0.5278644823
 H      2.2101010129      1.1501113266      0.9886466436
 O      1.4306301559     -1.2955929411     -0.7835538696
 H      1.3431370447     -1.5550857649     -1.7203231892
 H      2.3650040087     -1.1500731517     -0.6251217006
 O     -1.1919046086      1.5389695842      0.5697327971
 H     -1.9426161631      1.8336104171     -0.0002584402
 H     -0.7206460790      2.3788354499      0.7245633395
 O      4.2267764145     -1.9074200827      0.3251521072
 H      3.9500341645     -2.8088680419      0.0935638763
 H      4.6570002314     -1.6027728525     -0.4747129315
 O     -2.0177241557      0.7973413826     -3.5456625054
 H     -2.8024819355      0.4035841760     -3.1612531507
 H     -1.9196039374      0.3287474022     -4.4200467232
 O     -3.4891788576      2.4671715222     -0.5904189552
 H     -4.1216237103      2.7744524737      0.0947972712
 H     -3.3490989177      3.2717497957     -1.1176544976
 O      2.9993224516     -0.0804118157      2.0919335831
 H      3.5024058825     -0.7921726517      1.6719597778
 H      3.3801515988      0.1341332698      2.9360019599
 O     -3.9825043655     -0.3214805196     -1.5505011782
 H     -4.6155215829     -0.8863593180     -1.0621619368
 H     -3.9513830584      0.5787751105     -1.2500182436
 O      2.0589055114      2.1999609377     -2.4924316386
 H      1.6873145565      3.0680020401     -2.6787037435
 H      2.7626341788      2.0383917371     -3.1656562791
43
# ORCA AIMD Position Step 77, t=38.50 fs, E_Pot=-170980.51606634 kJ mol^-1, Unit is Angstrom
Zn     -0.0224951955     -0.0763751026      0.0434613670
 N      0.1529848663     -0.6515094892      1.9269142369
 C     -0.6690503215     -1.8864982699      1.9085212345
 C     -2.0102734661     -1.5174448891      1.2770729097
 N     -1.7219732614     -1.2027190426     -0.1295428228
 H      1.0500200991     -0.8928306203      2.3147701987
 H     -0.3184364819     -0.0909419384      2.5976930453
 H     -0.2220288776     -2.6676341422      1.2694236146
 H     -0.8072298145     -2.3128226063      2.9630825618
 H     -2.4535406333     -0.6623153784      1.8170522060
 H     -2.7623137980     -2.3984602501      1.4064822152
 H     -1.5468060636     -2.0927687899     -0.5937577772
 H     -2.4602825234     -0.6354048057     -0.5973613905
 O     -0.0293310449      0.5337796064     -1.8306404659
 H     -0.8213429990      0.5918755329     -2.4673382910
 H      0.7246425900      0.9863739316     -2.2573575364
 O      1.6263440534      1.3479079944      0.2528171036
 H      2.1075218317      1.7184405227     -0.5190180969
 H      2.2054363806      1.1487538280      0.9881530568
 O      1.4319972132     -1.2947021465     -0.7832979916
 H      1.3453436116     -1.5493427156     -1.7324208026
 H      2.3716078109     -1.1522367204     -0.6279872126
 O     -1.1911493568      1.5385111296      0.5705873733
 H     -1.9388894462      1.8343829484     -0.0041287005
 H     -0.7195784053      2.3857644891      0.7236427225
 O      4.2290362431     -1.9057978603      0.3255835987
 H      3.9517564038     -2.8123727667      0.0960560137
 H      4.6690900320     -1.6067379043     -0.4685945697
 O     -2.0156102141      0.8002921314     -3.5452457356
 H     -2.8129544152      0.4009308298     -3.1707045842
 H     -1.9131078571      0.3351993228     -4.4333676507
 O     -3.4892018953      2.4654467353     -0.5891821145
 H     -4.1242990435      2.7783040471      0.1024156451
 H     -3.3495073854      3.2759722408     -1.1122569994
 O      2.9986075626     -0.0810023580      2.0926063486
 H      3.5048880169     -0.7901637703      1.6729809239
 H      3.3763088246      0.1365236874      2.9361456420
 O     -3.9833227921     -0.3223256900     -1.5509253495
 H     -4.6248182103     -0.8988193844     -1.0652591319
 H     -3.9586443968      0.5792435312     -1.2467459123
 O      2.0589021045      2.1974568410     -2.4947476225
 H      1.6862588274      3.0635017357     -2.6827203965
 H      2.7668451975      2.0334150009     -3.1746022379
43
# ORCA AIMD Position Step 78, t=39.00 fs, E_Pot=-170978.36911314 kJ mol^-1, Unit is Angstrom
Zn     -0.0228372605     -0.0768220358      0.0439165747
 N      0.1532160521     -0.6523832985      1.9259209195
 C     -0.6671660308     -1.8871445639      1.9087718893
 C     -2.0149400540     -1.5157433214      1.2765015422
 N     -1.7211923684     -1.2015842828     -0.1294185949
 H      1.0526285399     -0.8975426388      2.3132540860
 H     -0.3227693230     -0.0843653604      2.6035871321
 H     -0.2351378890     -2.6741352080      1.2750806128
 H     -0.8115597111     -2.3058949502      2.9545647374
 H     -2.4514614821     -0.6708666895      1.8209629230
 H     -2.7589982988     -2.3891015251      1.4132632404
 H     -1.5523689031     -2.0859051370     -0.5896265085
 H     -2.4603651464     -0.6385270210     -0.5918641508
 O     -0.0293712899      0.5344534024     -1.8309011484
 H     -0.8335611475      0.5983473204     -2.4732281156
 H      0.7211927473      0.9812114324     -2.2547400133
 O      1.6266753485      1.3487490088      0.2512790455
 H      2.0985350265      1.7132254846     -0.5087281928
 H      2.2020978879      1.1470623025      0.9880035445
 O      1.4333544983     -1.2939175722     -0.7831481046
 H      1.3476838329     -1.5429094867     -1.7425144015
 H      2.3784935277     -1.1542303933     -0.6303282251
 O     -1.1903927066      1.5382125173      0.5714239511
 H     -1.9349155688      1.8344117436     -0.0074949476
 H     -0.7188425224      2.3909110727      0.7227609917
 O      4.2312325621     -1.9042768185      0.3259673726
 H      3.9537211117     -2.8149576999      0.0995075995
 H      4.6820213275     -1.6100066496     -0.4627981359
 O     -2.0135134988      0.8030959235     -3.5450768348
 H     -2.8233728853      0.3984137494     -3.1798016452
 H     -1.9066895565      0.3437525929     -4.4431410498
 O     -3.4893493310      2.4638750082     -0.5878691067
 H     -4.1252914717      2.7807964931      0.1085876647
 H     -3.3497044129      3.2788344404     -1.1067224876
 O      2.9978323624     -0.0816011044      2.0932469920
 H      3.5077450054     -0.7880520715      1.6740320977
 H      3.3733011619      0.1388964673      2.9370813244
 O     -3.9841980567     -0.3233916170     -1.5513574567
 H     -4.6325263374     -0.9086270802     -1.0695769733
 H     -3.9668249743      0.5812650117     -1.2423128097
 O      2.0590517541      2.1949134625     -2.4972104591
 H      1.6852806799      3.0589280535     -2.6867473675
 H      2.7687539979      2.0290203807     -3.1813508049
43
# ORCA AIMD Position Step 79, t=39.50 fs, E_Pot=-170976.92740193 kJ mol^-1, Unit is Angstrom
Zn     -0.0231649462     -0.0772418567      0.0443589377
 N      0.1533368810     -0.6534976777      1.9249056136
 C     -0.6653921709     -1.8878481705      1.9091721210
 C     -2.0197187259     -1.5142732041      1.2759879012
 N     -1.7203909523     -1.2003672123     -0.1291743943
 H      1.0562721310     -0.9016945064      2.3116352043
 H     -0.3269164594     -0.0763955548      2.6099812628
 H     -0.2476773724     -2.6798289614      1.2814138911
 H     -0.8155721955     -2.2980608171      2.9436780296
 H     -2.4490171542     -0.6793208700      1.8240101968
 H     -2.7533991964     -2.3773795516      1.4191394957
 H     -1.5585611617     -2.0788415992     -0.5863344781
 H     -2.4599427878     -0.6435581793     -0.5860855384
 O     -0.0295963897      0.5351079571     -1.8312956342
 H     -0.8431681469      0.6050154900     -2.4773997534
 H      0.7175948338      0.9765472461     -2.2520024314
 O      1.6268545185      1.3495935127      0.2496995717
 H      2.0899754763      1.7078718600     -0.4982625451
 H      2.2001833814      1.1450347760      0.9882760610
 O      1.4347162747     -1.2932514326     -0.7831448353
 H      1.3501710384     -1.5356862289     -1.7498309384
 H      2.3851319704     -1.1561029676     -0.6321742356
 O     -1.1896310548      1.5380998682      0.5722365400
 H     -1.9307380232      1.8336633834     -0.0103061214
 H     -0.7186081994      2.3938828671      0.7218870893
 O      4.2333374857     -1.9028886112      0.3263030491
 H      3.9560025120     -2.8163022673      0.1039166114
 H      4.6957152356     -1.6125562780     -0.4574565017
 O     -2.0114960925      0.8056964903     -3.5451640713
 H     -2.8328853742      0.3964079329     -3.1887691681
 H     -1.9004599495      0.3544916905     -4.4488324729
 O     -3.4896364280      2.4624898093     -0.5864762022
 H     -4.1243310477      2.7817329802      0.1129749892
 H     -3.3496908554      3.2801797983     -1.1010630548
 O      2.9970028627     -0.0822012249      2.0938500768
 H      3.5109571693     -0.7858707437      1.6751026223
 H      3.3711553240      0.1412260650      2.9387920711
 O     -3.9851470236     -0.3246627970     -1.5517668936
 H     -4.6381609270     -0.9153021916     -1.0753493096
 H     -3.9758615807      0.5843215954     -1.2369191026
 O      2.0593715010      2.1923435113     -2.4998128648
 H      1.6843558888      3.0544167315     -2.6907797535
 H      2.7680895606      2.0253220502     -3.1855958390
43
# ORCA AIMD Position Step 80, t=40.00 fs, E_Pot=-170976.56105222 kJ mol^-1, Unit is Angstrom
Zn     -0.0234798941     -0.0776368482      0.0447903840
 N      0.1533387335     -0.6548167534      1.9239210520
 C     -0.6637658760     -1.8885720515      1.9096912801
 C     -2.0245506550     -1.5130326831      1.2755255859
 N     -1.7195686600     -1.1990333420     -0.1287722189
 H      1.0606210332     -0.9051656770      2.3098087198
 H     -0.3303079572     -0.0677489836      2.6161127827
 H     -0.2594262713     -2.6849134731      1.2881781450
 H     -0.8193228574     -2.2895511907      2.9310871171
 H     -2.4464276663     -0.6871217100      1.8264331510
 H     -2.7459276202     -2.3638028398      1.4240663574
 H     -1.5652349595     -2.0722379633     -0.5842042669
 H     -2.4592955190     -0.6501863919     -0.5802399718
 O     -0.0300597799      0.5357318341     -1.8318244371
 H     -0.8498454399      0.6118457557     -2.4796159697
 H      0.7142756028      0.9726249540     -2.2494111198
 O      1.6268321572      1.3504046084      0.2481590215
 H      2.0826716639      1.7030095702     -0.4889128152
 H      2.1996499870      1.1426695092      0.9889393283
 O      1.4361156849     -1.2927007321     -0.7833113231
 H      1.3528276329     -1.5275584339     -1.7539932479
 H      2.3911209855     -1.1579245686     -0.6335777093
 O     -1.1888533208      1.5381828838      0.5730312162
 H     -1.9263869225      1.8321259452     -0.0125945922
 H     -0.7189406699      2.3945344272      0.7210080915
 O      4.2353601712     -1.9016319696      0.3265915624
 H      3.9586658832     -2.8162572797      0.1092882532
 H      4.7102124124     -1.6144575527     -0.4525152662
 O     -2.0095864167      0.8080898618     -3.5454996165
 H     -2.8408913645      0.3952020782     -3.1978821527
 H     -1.8944053477      0.3674681554     -4.4503449987
 O     -3.4900710408      2.4612901164     -0.5849882139
 H     -4.1213329708      2.7810375788      0.1155082018
 H     -3.3494530428      3.2800007234     -1.0952837443
 O      2.9961180399     -0.0828034194      2.0944258876
 H      3.5145348238     -0.7836110360      1.6761995986
 H      3.3698050673      0.1434942668      2.9411643293
 O     -3.9861871161     -0.3261180794     -1.5521354307
 H     -4.6415597646     -0.9187087882     -1.0827130832
 H     -3.9857822400      0.5878045088     -1.2307643039
 O      2.0598670326      2.1897275743     -2.5025698210
 H      1.6834411895      3.0500365580     -2.6948611479
 H      2.7648264449      2.0223142109     -3.1873301552
43
# ORCA AIMD Position Step 81, t=40.50 fs, E_Pot=-170977.45630998 kJ mol^-1, Unit is Angstrom
Zn     -0.0237859067     -0.0780119194      0.0452160544
 N      0.1532183386     -0.6563194166      1.9230075992
 C     -0.6623091929     -1.8892787776      1.9102931851
 C     -2.0294035251     -1.5120007478      1.2751000346
 N     -1.7187121064     -1.1975445258     -0.1281705492
 H      1.0653581564     -0.9078556581      2.3076418713
 H     -0.3324548875     -0.0590134220      2.6213388132
 H     -0.2702483030     -2.6896437490      1.2951621064
 H     -0.8229284131     -2.2805863520      2.9175191846
 H     -2.4438912939     -0.6937502445      1.8285050798
 H     -2.7370614027     -2.3489286874      1.4280626505
 H     -1.5723041268     -2.0666621124     -0.5835158829
 H     -2.4587700841     -0.6580985346     -0.5745327448
 O     -0.0308097203      0.5363189155     -1.8324876836
 H     -0.8534427449      0.6188613588     -2.4797421657
 H      0.7116205623      0.9696515288     -2.2471920885
 O      1.6265615094      1.3511490628      0.2467338792
 H      2.0774081703      1.6992402211     -0.4819273129
 H      2.2003803929      1.1399680551      0.9898675574
 O      1.4375941278     -1.2922560855     -0.7836587123
 H      1.3556727498     -1.5184124705     -1.7548767264
 H      2.3961652085     -1.1597659862     -0.6345807212
 O     -1.1880457938      1.5384614640      0.5738201290
 H     -1.9218992957      1.8297878953     -0.0144403899
 H     -0.7198167614      2.3928760191      0.7201339593
 O      4.2373305249     -1.9004857261      0.3268316975
 H      3.9617618069     -2.8148019433      0.1156379894
 H      4.7256061722     -1.6158334702     -0.4477864626
 O     -2.0077933751      0.8103009879     -3.5460679788
 H     -2.8469818597      0.3950163373     -3.2074033208
 H     -1.8884306989      0.3827148301     -4.4478452409
 O     -3.4906565504      2.4602553867     -0.5833848843
 H     -4.1163367771      2.7786979748      0.1162997298
 H     -3.3489551008      3.2783825690     -1.0894148454
 O      2.9951730514     -0.0834122861      2.0949944086
 H      3.5185082413     -0.7812338475      1.6773413996
 H      3.3691398272      0.1456767894      2.9440164817
 O     -3.9873330964     -0.3277335870     -1.5524541246
 H     -4.6427736532     -0.9189083207     -1.0917303503
 H     -3.9966716388      0.5910952582     -1.2240301034
 O      2.0605359443      2.1870304136     -2.5055062829
 H      1.6824855771      3.0458121779     -2.6990554510
 H      2.7591062082      2.0199174826     -3.1867388672
43
# ORCA AIMD Position Step 82, t=41.00 fs, E_Pot=-170979.53606914 kJ mol^-1, Unit is Angstrom
Zn     -0.0240791316     -0.0783625228      0.0456306857
 N      0.1529808733     -0.6579544062      1.9222192467
 C     -0.6610762291     -1.8899093568      1.9109167004
 C     -2.0341167808     -1.5111671810      1.2747035762
 N     -1.7178225597     -1.1959095950     -0.1273456570
 H      1.0700607720     -0.9096036741      2.3050522589
 H     -0.3329026516     -0.0508958784      2.6250026043
 H     -0.2797487516     -2.6941627497      1.3019820490
 H     -0.8264520080     -2.2716552837      2.9041833618
 H     -2.4416488695     -0.6985432167      1.8304406992
 H     -2.7276319869     -2.3338427269      1.4310845232
 H     -1.5795345487     -2.0626977765     -0.5844988233
 H     -2.4587791557     -0.6667545147     -0.5693309111
 O     -0.0318656107      0.5368510777     -1.8332676823
 H     -0.8538192527      0.6259220512     -2.4777082320
 H      0.7100145975      0.9678715789     -2.2455773931
 O      1.6260125691      1.3517798780      0.2455281081
 H      2.0749760662      1.6971596027     -0.4785305039
 H      2.2021841361      1.1370165689      0.9908285362
 O      1.4391531933     -1.2919169274     -0.7841764465
 H      1.3586340990     -1.5084159337     -1.7525614619
 H      2.3999320677     -1.1616375420     -0.6351770926
 O     -1.1872178666      1.5389180979      0.5745962607
 H     -1.9174580610      1.8267063937     -0.0159075671
 H     -0.7211015735      2.3891168812      0.7193249477
 O      4.2392357573     -1.8994465111      0.3270131456
 H      3.9652307376     -2.8120828477      0.1227973588
 H      4.7415627897     -1.6168033295     -0.4431185336
 O     -2.0061637312      0.8123123548     -3.5468282672
 H     -2.8507459340      0.3960092102     -3.2172861432
 H     -1.8825465204      0.3997763749     -4.4418337189
 O     -3.4913741888      2.4593798207     -0.5816916353
 H     -4.1096517068      2.7748309272      0.1156102286
 H     -3.3481537147      3.2755418427     -1.0836936536
 O      2.9941882646     -0.0840173305      2.0955655772
 H      3.5228032577     -0.7787458238      1.6785206945
 H      3.3690414050      0.1476798421      2.9470370281
 O     -3.9885610918     -0.3294359710     -1.5527138420
 H     -4.6420177713     -0.9161372813     -1.1021163976
 H     -4.0083277910      0.5935211375     -1.2170709070
 O      2.0613469854      2.1842869811     -2.5085643382
 H      1.6814641878      3.0418518956     -2.7033122876
 H      2.7514086249      2.0180564333     -3.1842101116
43
# ORCA AIMD Position Step 83, t=41.50 fs, E_Pot=-170982.21130069 kJ mol^-1, Unit is Angstrom
Zn     -0.0243625571     -0.0786924416      0.0460387364
 N      0.1526335669     -0.6597119528      1.9215780133
 C     -0.6600834501     -1.8904198664      1.9115059983
 C     -2.0386335190     -1.5104802841      1.2743174080
 N     -1.7168773706     -1.1941175655     -0.1262677136
 H      1.0744535920     -0.9103281752      2.3019169006
 H     -0.3313527219     -0.0437878940      2.6267051464
 H     -0.2878000287     -2.6987034735      1.3084324488
 H     -0.8300694149     -2.2630749756      2.8920838666
 H     -2.4398428221     -0.7010615864      1.8324617291
 H     -2.7183965435     -2.3194412049      1.4332211352
 H     -1.5868885309     -2.0606009197     -0.5872568347
 H     -2.4597406382     -0.6757912855     -0.5648708464
 O     -0.0332499912      0.5373276544     -1.8341620842
 H     -0.8510142089      0.6330584289     -2.4735131006
 H      0.7096641038      0.9673962727     -2.2446715821
 O      1.6251683410      1.3522799136      0.2445872054
 H      2.0757595237      1.6970498905     -0.4793245153
 H      2.2048530542      1.1338538321      0.9915532783
 O      1.4408232953     -1.2916705976     -0.7848480161
 H      1.3616824751     -1.4975821267     -1.7473880874
 H      2.4023099861     -1.1635745057     -0.6353589866
 O     -1.1863641958      1.5395309825      0.5753705451
 H     -1.9131724349      1.8228967116     -0.0171269448
 H     -0.7225919578      2.3835883520      0.7186484317
 O      4.2411127611     -1.8984753280      0.3271294841
 H      3.9690500226     -2.8083433755      0.1307169227
 H      4.7580617164     -1.6175372669     -0.4382004391
 O     -2.0046968495      0.8141693898     -3.5477385789
 H     -2.8520743974      0.3982597919     -3.2276308189
 H     -1.8765776458      0.4184258188     -4.4330623749
 O     -3.4922104204      2.4586238766     -0.5799046674
 H     -4.1016209463      2.7695758092      0.1138906064
 H     -3.3469775892      3.2717396421     -1.0782764820
 O      2.9931637381     -0.0846222210      2.0961641258
 H      3.5274286691     -0.7760895475      1.6797565726
 H      3.3693659112      0.1494530290      2.9499531447
 O     -3.9898617696     -0.3311814144     -1.5529215671
 H     -4.6397455452     -0.9108327703     -1.1136627871
 H     -4.0207765308      0.5945663740     -1.2100782903
 O      2.0622709670      2.1814754635     -2.5117413884
 H      1.6803366750      3.0381411764     -2.7076641093
 H      2.7422880843      2.0165436558     -3.1803170028
43
# ORCA AIMD Position Step 84, t=42.00 fs, E_Pot=-170984.23570513 kJ mol^-1, Unit is Angstrom
Zn     -0.0246361591     -0.0790018283      0.0464405529
 N      0.1521898456     -0.6615729844      1.9211013679
 C     -0.6593548662     -1.8907635591      1.9119955754
 C     -2.0428477291     -1.5098780211      1.2739280793
 N     -1.7158617866     -1.1921891864     -0.1249270675
 H      1.0782762002     -0.9099591190      2.2981568966
 H     -0.3276194619     -0.0380352278      2.6261609606
 H     -0.2942152922     -2.7034141200      1.3142810651
 H     -0.8339391601     -2.2552531633      2.8823759483
 H     -2.4385784321     -0.7009493772      1.8346977131
 H     -2.7102957284     -2.3068690959      1.4345736829
 H     -1.5942942453     -2.0604128509     -0.5917424883
 H     -2.4620392433     -0.6847930411     -0.5614118787
 O     -0.0349570643      0.5377478975     -1.8351612995
 H     -0.8451827373      0.6402441562     -2.4672570066
 H      0.7106355563      0.9682656963     -2.2444962290
 O      1.6240429144      1.3526447807      0.2439289678
 H      2.0797597184      1.6988950219     -0.4842935785
 H      2.2081462263      1.1305563984      0.9917348486
 O      1.4426135519     -1.2915059946     -0.7856368927
 H      1.3647372917     -1.4860733259     -1.7399784454
 H      2.4032687511     -1.1655761644     -0.6350893368
 O     -1.1854916793      1.5402634108      0.5761458720
 H     -1.9092136734      1.8184164285     -0.0182322455
 H     -0.7239898296      2.3768156295      0.7182028211
 O      4.2429830908     -1.8975352224      0.3271727276
 H      3.9731319897     -2.8039754077      0.1392538293
 H      4.7749004676     -1.6182047880     -0.4327478706
 O     -2.0034014213      0.8159107064     -3.5487325604
 H     -2.8509963642      0.4017562069     -3.2383726539
 H     -1.8703495493      0.4381415824     -4.4226940716
 O     -3.4931362251      2.4579476172     -0.5780453705
 H     -4.0927975901      2.7631889200      0.1117693103
 H     -3.3453527340      3.2673291093     -1.0734120434
 O      2.9921097649     -0.0852253191      2.0968089035
 H      3.5323431916     -0.7732258327      1.6810547714
 H      3.3699717603      0.1509295109      2.9524687050
 O     -3.9912007270     -0.3329033786     -1.5530915223
 H     -4.6366454352     -0.9036732004     -1.1259259850
 H     -4.0339104291      0.5938130885     -1.2032878361
 O      2.0632572624      2.1786063262     -2.5149926530
 H      1.6790827675      3.0346764567     -2.7120894924
 H      2.7325785100      2.0151539411     -3.1758559319
43
# ORCA AIMD Position Step 85, t=42.50 fs, E_Pot=-170984.45711332 kJ mol^-1, Unit is Angstrom
Zn     -0.0248997425     -0.0792906558      0.0468362898
 N      0.1516664231     -0.6635239533      1.9207936222
 C     -0.6589101932     -1.8909030067      1.9123250758
 C     -2.0466576904     -1.5092844217      1.2735271219
 N     -1.7147654180     -1.1901599653     -0.1233303017
 H      1.0813462746     -0.9084665142      2.2937218947
 H     -0.3216467267     -0.0338499555      2.6232458425
 H     -0.2988565848     -2.7083779166      1.3193562395
 H     -0.8382122512     -2.2485567381      2.8761026737
 H     -2.4378886387     -0.6980362362      1.8371773229
 H     -2.7042790410     -2.2972664476      1.4352741955
 H     -1.6017082466     -2.0619069451     -0.5977517196
 H     -2.4659641194     -0.6934124777     -0.5591507896
 O     -0.0369585687      0.5381162385     -1.8362543017
 H     -0.8366432899      0.6474698530     -2.4591553661
 H      0.7128250995      0.9704175332     -2.2449687466
 O      1.6226769211      1.3528898859      0.2435289538
 H      2.0865501357      1.7023537188     -0.4927523169
 H      2.2118232404      1.1272044676      0.9910698442
 O      1.4445255961     -1.2914103255     -0.7864906555
 H      1.3676957528     -1.4741023689     -1.7312272118
 H      2.4029049857     -1.1676234891     -0.6343121213
 O     -1.1846116807      1.5410691919      0.5769240658
 H     -1.9057573602      1.8133373330     -0.0193631507
 H     -0.7249302670      2.3694642590      0.7181027355
 O      4.2448692807     -1.8965835056      0.3271368542
 H      3.9773637556     -2.7994725594      0.1482439155
 H      4.7918623841     -1.6189740837     -0.4264914348
 O     -2.0022789961      0.8175869027     -3.5497257722
 H     -2.8477333894      0.4063967532     -3.2493773133
 H     -1.8636283799      0.4582763277     -4.4122543836
 O     -3.4941144350      2.4573046354     -0.5761447190
 H     -4.0838607362      2.7560031435      0.1100241005
 H     -3.3432047211      3.2627008379     -1.0693603349
 O      2.9910368981     -0.0858257299      2.0975162620
 H      3.5374957882     -0.7701152329      1.6824162672
 H      3.3707290554      0.1520549175      2.9543249237
 O     -3.9925299085     -0.3345306688     -1.5532476380
 H     -4.6336329415     -0.8955538372     -1.1383342239
 H     -4.0475994420      0.5909950268     -1.1969022591
 O      2.0642434346      2.1756961278     -2.5182615571
 H      1.6776946064      3.0314248165     -2.7165544541
 H      2.7232818227      2.0136175307     -3.1717912686
43
# ORCA AIMD Position Step 86, t=43.00 fs, E_Pot=-170982.97624307 kJ mol^-1, Unit is Angstrom
Zn     -0.0251501232     -0.0795556910      0.0472215583
 N      0.1510884195     -0.6655351574      1.9206481080
 C     -0.6587696930     -1.8908157167      1.9124481498
 C     -2.0499379154     -1.5086277084      1.2731190814
 N     -1.7135997133     -1.1880976814     -0.1215199209
 H      1.0835436171     -0.9058884179      2.2886471842
 H     -0.3135881735     -0.0313385708      2.6180467944
 H     -0.3016040994     -2.7135397835      1.3235134601
 H     -0.8429510080     -2.2433236179      2.8740803460
 H     -2.4377367734     -0.6924132309      1.8397872487
 H     -2.7012224783     -2.2916873013      1.4354526492
 H     -1.6090219003     -2.0646052553     -0.6048697887
 H     -2.4715991843     -0.7013156464     -0.5582081768
 O     -0.0391790677      0.5384372489     -1.8374136580
 H     -0.8260230192      0.6546716196     -2.4496676266
 H      0.7159444999      0.9736671561     -2.2459059916
 O      1.6211460304      1.3530432370      0.2433334637
 H      2.0952951431      1.7068068818     -0.5034226122
 H      2.2156208226      1.1239103544      0.9893023782
 O      1.4465317118     -1.2913706446     -0.7873334900
 H      1.3704062243     -1.4620489244     -1.7223653096
 H      2.4014479576     -1.1696597428     -0.6329672535
 O     -1.1837489037      1.5418873150      0.5776970312
 H     -1.9029989921      1.8078009883     -0.0206363178
 H     -0.7250078822      2.3623652674      0.7184660457
 O      4.2467716484     -1.8955861945      0.3270196861
 H      3.9815737813     -2.7954306295      0.1574138648
 H      4.8085500630     -1.6199915413     -0.4192816634
 O     -2.0013344675      0.8192387354     -3.5506109521
 H     -2.8427503526      0.4119270373     -3.2603311965
 H     -1.8562079146      0.4778944528     -4.4036306053
 O     -3.4950918174      2.4566537490     -0.5742622890
 H     -4.0756517869      2.7484834703      0.1095298546
 H     -3.3404973093      3.2582881946     -1.0663985707
 O      2.9899670180     -0.0864169571      2.0982902036
 H      3.5427700369     -0.7667585160      1.6838202575
 H      3.3715221415      0.1527859107      2.9553122484
 O     -3.9937763718     -0.3359750034     -1.5534195337
 H     -4.6318213052     -0.8876198862     -1.1500996116
 H     -4.0615435133      0.5860574365     -1.1911477767
 O      2.0651509355      2.1727978740     -2.5214496357
 H      1.6761949939      3.0283634766     -2.7209668029
 H      2.7155637143      2.0116650005     -3.1691982419
43
# ORCA AIMD Position Step 87, t=43.50 fs, E_Pot=-170981.46657261 kJ mol^-1, Unit is Angstrom
Zn     -0.0253883147     -0.0797982961      0.0475982170
 N      0.1504735772     -0.6676155424      1.9206400978
 C     -0.6589460488     -1.8905006242      1.9123506786
 C     -2.0526524768     -1.5078396074      1.2727130529
 N     -1.7123708981     -1.1860391791     -0.1195268233
 H      1.0848948990     -0.9022829302      2.2829281027
 H     -0.3036251720     -0.0303908241      2.6107658553
 H     -0.3024747429     -2.7188378594      1.3267772432
 H     -0.8482179657     -2.2396426918      2.8766124020
 H     -2.4380128506     -0.6843284181      1.8423497428
 H     -2.7016277785     -2.2906725293      1.4352144084
 H     -1.6162504625     -2.0679123283     -0.6126904457
 H     -2.4789069016     -0.7084348706     -0.5585561669
 O     -0.0415541407      0.5387230632     -1.8386231360
 H     -0.8140304933      0.6619441416     -2.4392878834
 H      0.7196347060      0.9778018914     -2.2470686180
 O      1.6195103913      1.3531433412      0.2432665665
 H      2.1051244398      1.7116004567     -0.5149719351
 H      2.2193718168      1.1207185458      0.9862258215
 O      1.4486285548     -1.2913731875     -0.7880958502
 H      1.3727591175     -1.4501012187     -1.7146114928
 H      2.3992223027     -1.1716512154     -0.6309711324
 O     -1.1829153035      1.5426705103      0.5784680977
 H     -1.9010422651      1.8018706717     -0.0221589760
 H     -0.7238499917      2.3562196599      0.7193968875
 O      4.2487175583     -1.8944967169      0.3268217718
 H      3.9856677983     -2.7923540645      0.1666473580
 H      4.8248741602     -1.6213944124     -0.4109351486
 O     -2.0005448727      0.8209354439     -3.5512998830
 H     -2.8366370527      0.4180780365     -3.2710615247
 H     -1.8477578612      0.4964357517     -4.3985318237
 O     -3.4960317427      2.4559479260     -0.5724289036
 H     -4.0688273142      2.7409763356      0.1110976372
 H     -3.3371839694      3.2543872201     -1.0646788633
 O      2.9889030356     -0.0870033990      2.0991411196
 H      3.5481303595     -0.7631138218      1.6852597345
 H      3.3722800019      0.1531233087      2.9553361434
 O     -3.9948866424     -0.3371833290     -1.5536414657
 H     -4.6323026024     -0.8809094956     -1.1606529805
 H     -4.0756629084      0.5790712121     -1.1860915778
 O      2.0659227411      2.1699176714     -2.5245163038
 H      1.6745957198      3.0253964909     -2.7253046291
 H      2.7103335000      2.0090293818     -3.1689908169
43
# ORCA AIMD Position Step 88, t=44.00 fs, E_Pot=-170982.14762382 kJ mol^-1, Unit is Angstrom
Zn     -0.0256115955     -0.0800160147      0.0479621022
 N      0.1498497986     -0.6697494819      1.9207323971
 C     -0.6594502224     -1.8899815011      1.9120519486
 C     -2.0547588037     -1.5068908139      1.2723360226
 N     -1.7111178817     -1.1840492827     -0.1174233882
 H      1.0855016315     -0.8978064555      2.2766789220
 H     -0.2922127843     -0.0307575888      2.6018777405
 H     -0.3015315343     -2.7240467505      1.3292043290
 H     -0.8539072721     -2.2375031901      2.8834905054
 H     -2.4385604159     -0.6743259266      1.8445686430
 H     -2.7056050805     -2.2942885150      1.4346017978
 H     -1.6232883261     -2.0711313126     -0.6206482484
 H     -2.4875490751     -0.7147126753     -0.5600497217
 O     -0.0439642758      0.5389802748     -1.8398387049
 H     -0.8017886427      0.6693191995     -2.4288495058
 H      0.7234291937      0.9825131263     -2.2481694866
 O      1.6178521115      1.3532268024      0.2432520407
 H      2.1150222782      1.7160321562     -0.5259430990
 H      2.2228983715      1.1177033580      0.9817595202
 O      1.4507744192     -1.2914067107     -0.7886983972
 H      1.3746186460     -1.4386005566     -1.7092730029
 H      2.3966595086     -1.1735279494     -0.6282679625
 O     -1.1821345373      1.5433669914      0.5792277805
 H     -1.8999683262      1.7957020108     -0.0239719744
 H     -0.7211804535      2.3517071712      0.7209537189
 O      4.2506982940     -1.8932934566      0.3265499605
 H      3.9895188364     -2.7907009327      0.1757109145
 H      4.8405414569     -1.6232687030     -0.4014789851
 O     -1.9998874852      0.8227126937     -3.5517182404
 H     -2.8302226006      0.4244090724     -3.2812116533
 H     -1.8381296804      0.5132254199     -4.3983678013
 O     -3.4968905378      2.4551621107     -0.5706988012
 H     -4.0639901040      2.7338850242      0.1153343602
 H     -3.3333069017      3.2512475863     -1.0642885556
 O      2.9878622742     -0.0875814742      2.1000605915
 H      3.5534585529     -0.7592070453      1.6866958593
 H      3.3729569438      0.1530911438      2.9543965054
 O     -3.9958001086     -0.3381038816     -1.5539389341
 H     -4.6359846987     -0.8764074441     -1.1694043643
 H     -4.0896667545      0.5703824568     -1.1818162091
 O      2.0665076937      2.1671027383     -2.5273901330
 H      1.6729417256      3.0224628629     -2.7294819853
 H      2.7082823789      2.0055637726     -3.1717991480
43
# ORCA AIMD Position Step 89, t=44.50 fs, E_Pot=-170985.97566253 kJ mol^-1, Unit is Angstrom
Zn     -0.0258220181     -0.0802111562      0.0483165011
 N      0.1492326305     -0.6719724954      1.9208767608
 C     -0.6603002476     -1.8892912513      1.9115975314
 C     -2.0563015075     -1.5057678130      1.2720163353
 N     -1.7098661787     -1.1821433531     -0.1152461944
 H      1.0855750748     -0.8925730469      2.2699187226
 H     -0.2796999369     -0.0320247676      2.5918477541
 H     -0.2988950426     -2.7289845026      1.3309809053
 H     -0.8599398554     -2.2366905152      2.8941540118
 H     -2.4392117419     -0.6628876972      1.8461557705
 H     -2.7128895677     -2.3020978649      1.4335737547
 H     -1.6301597518     -2.0736641238     -0.6283484414
 H     -2.4971908081     -0.7203248760     -0.5624657955
 O     -0.0463264789      0.5392177970     -1.8410318094
 H     -0.7903723900      0.6770308823     -2.4191262393
 H      0.7269419452      0.9875797116     -2.2489481976
 O      1.6162096769      1.3533275326      0.2432203511
 H      2.1242824582      1.7195964003     -0.5353195658
 H      2.2261524253      1.1148507881      0.9758388057
 O      1.4529663400     -1.2914645843     -0.7890907935
 H      1.3759251592     -1.4275796713     -1.7072740713
 H      2.3941758677     -1.1752605006     -0.6247628159
 O     -1.1814092581      1.5439546327      0.5799821006
 H     -1.8997606882      1.7893252009     -0.0260968232
 H     -0.7168258041      2.3491718388      0.7231683087
 O      4.2527374874     -1.8919442326      0.3262094546
 H      3.9931321186     -2.7907123473      0.1845957367
 H      4.8556509950     -1.6257005518     -0.3908482969
 O     -1.9993108425      0.8246250053     -3.5518495569
 H     -2.8242926596      0.4305577088     -3.2906505521
 H     -1.8271260915      0.5282545224     -4.4037343566
 O     -3.4976571839      2.4542720944     -0.5690768781
 H     -4.0613462747      2.7273515717      0.1225802390
 H     -3.3288808129      3.2489079607     -1.0651773767
 O      2.9868379852     -0.0881605502      2.1010525613
 H      3.5587500092     -0.7550009487      1.6881094737
 H      3.3735605374      0.1527460147      2.9525822538
 O     -3.9965009447     -0.3387386617     -1.5543297613
 H     -4.6434095753     -0.8746297831     -1.1762312108
 H     -4.1035720159      0.5603338290     -1.1782416018
 O      2.0668968817      2.1643347895     -2.5300876118
 H      1.6712560040      3.0194392794     -2.7335100411
 H      2.7095626040      2.0011831988     -3.1778277763
43
# ORCA AIMD Position Step 90, t=45.00 fs, E_Pot=-170991.69094140 kJ mol^-1, Unit is Angstrom
Zn     -0.0260188857     -0.0803833252      0.0486599701
 N      0.1486454280     -0.6743009965      1.9210138472
 C     -0.6615072129     -1.8884812286      1.9110588733
 C     -2.0573286499     -1.5044996183      1.2717922022
 N     -1.7086654879     -1.1803523786     -0.1130596196
 H      1.0853917983     -0.8867852371      2.2627652775
 H     -0.2666698469     -0.0336288902      2.5813876201
 H     -0.2947434744     -2.7333626986      1.3323119112
 H     -0.8661007016     -2.2369173918      2.9076282482
 H     -2.4397937562     -0.6506835135      1.8467909190
 H     -2.7228202922     -2.3131828471      1.4320375721
 H     -1.6367803887     -2.0749632677     -0.6353414216
 H     -2.5072833851     -0.7254245168     -0.5654973117
 O     -0.0485242037      0.5394370452     -1.8421525750
 H     -0.7811085857      0.6852635459     -2.4111000833
 H      0.7297840057      0.9927425105     -2.2491583983
 O      1.6146296323      1.3534721664      0.2431134666
 H      2.1322256501      1.7218621201     -0.5422174690
 H      2.2291003668      1.1121580841      0.9685502335
 O      1.4551714125     -1.2915450532     -0.7892418690
 H      1.3766490507     -1.4171260077     -1.7091595366
 H      2.3922064678     -1.1768027916     -0.6204140525
 O     -1.1807450901      1.5444211575      0.5807279854
 H     -1.9003483652      1.7828455357     -0.0284761488
 H     -0.7108265197      2.3487228821      0.7259889213
 O      4.2548250744     -1.8904476128      0.3258115253
 H      3.9965271330     -2.7924371362      0.1932201422
 H      4.8701743145     -1.6287191925     -0.3791829848
 O     -1.9987596587      0.8266831712     -3.5517281934
 H     -2.8197065594      0.4360748940     -3.2991618131
 H     -1.8148693282      0.5416410981     -4.4142851930
 O     -3.4983275670      2.4532813682     -0.5675720135
 H     -4.0608297294      2.7214701356      0.1327172014
 H     -3.3240170451      3.2473038477     -1.0671830282
 O      2.9858340263     -0.0887435119      2.1021042069
 H      3.5639388060     -0.7505220905      1.6894540710
 H      3.3741259155      0.1521714375      2.9500834375
 O     -3.9969945367     -0.3391155340     -1.5548108731
 H     -4.6545195773     -0.8756818249     -1.1812347940
 H     -4.1172471035      0.5495087588     -1.1752771503
 O      2.0671053066      2.1616222406     -2.5326190764
 H      1.6695902880      3.0162472619     -2.7373607030
 H      2.7138470006      1.9959843981     -3.1867478881
43
# ORCA AIMD Position Step 91, t=45.50 fs, E_Pot=-170996.74275144 kJ mol^-1, Unit is Angstrom
Zn     -0.0262052531     -0.0805353396      0.0489973497
 N      0.1480999355     -0.6768017024      1.9210803450
 C     -0.6631035726     -1.8875929593      1.9105090747
 C     -2.0579249141     -1.5031124818      1.2716979687
 N     -1.7075472837     -1.1786646397     -0.1108843421
 H      1.0852748633     -0.8805586649      2.2552115224
 H     -0.2535188541     -0.0349234659      2.5711035978
 H     -0.2892076152     -2.7369574572      1.3334531184
 H     -0.8722561694     -2.2378539915      2.9230177751
 H     -2.4401607698     -0.6381622404      1.8461898658
 H     -2.7347087900     -2.3265674222      1.4298418925
 H     -1.6431695625     -2.0746293428     -0.6413757871
 H     -2.5174228558     -0.7302763690     -0.5688633331
 O     -0.0504915203      0.5396400546     -1.8431735327
 H     -0.7750744785      0.6943721509     -2.4055472266
 H      0.7316894113      0.9978760972     -2.2485992335
 O      1.6131156810      1.3536839173      0.2428829413
 H      2.1384786639      1.7225700347     -0.5461512565
 H      2.2318221607      1.1095441026      0.9599325879
 O      1.4573975743     -1.2916531069     -0.7891565216
 H      1.3768399321     -1.4070378724     -1.7149497237
 H      2.3910897901     -1.1781501226     -0.6151263180
 O     -1.1801274353      1.5447820351      0.5814773093
 H     -1.9016116909      1.7762444995     -0.0310463242
 H     -0.7032958714      2.3501621883      0.7293535646
 O      4.2569816864     -1.8887897006      0.3253621863
 H      3.9998499964     -2.7957370959      0.2017017146
 H      4.8844255264     -1.6323803533     -0.3664774177
 O     -1.9981626972      0.8289177794     -3.5514338903
 H     -2.8171212619      0.4406607936     -3.3067608011
 H     -1.8014580930      0.5540059228     -4.4290340693
 O     -3.4989269854      2.4521904346     -0.5661466152
 H     -4.0620533473      2.7160979351      0.1454251643
 H     -3.3187772524      3.2462185236     -1.0700802286
 O      2.9848331450     -0.0893447645      2.1032183732
 H      3.5690632857     -0.7457261627      1.6906998059
 H      3.3747294889      0.1514615484      2.9471157258
 O     -3.9973280095     -0.3393036675     -1.5553724669
 H     -4.6689137141     -0.8792357739     -1.1849161751
 H     -4.1308494350      0.5383825066     -1.1727205358
 O      2.0671780438      2.1589144082     -2.5350675577
 H      1.6679684116      3.0127646486     -2.7410927864
 H      2.7204719108      1.9900833358     -3.1979832882
43
# ORCA AIMD Position Step 92, t=46.00 fs, E_Pot=-170998.83848905 kJ mol^-1, Unit is Angstrom
Zn     -0.0263796088     -0.0806660267      0.0493251323
 N      0.1476197210     -0.6794869433      1.9210087141
 C     -0.6650866092     -1.8866880020      1.9100369586
 C     -2.0581599108     -1.5016744175      1.2717681649
 N     -1.7065715802     -1.1771021957     -0.1087878805
 H      1.0855728932     -0.8741637725      2.2474264527
 H     -0.2409665425     -0.0351741003      2.5618791587
 H     -0.2825498152     -2.7394516166      1.3346350711
 H     -0.8781192077     -2.2391558541      2.9390472412
 H     -2.4401809708     -0.6260364636      1.8441098015
 H     -2.7475290277     -2.3408916885      1.4268801825
 H     -1.6491705006     -2.0723883995     -0.6461210809
 H     -2.5269706034     -0.7350085923     -0.5722055894
 O     -0.0521365415      0.5398228574     -1.8440531027
 H     -0.7732336330      0.7044711065     -2.4031821397
 H      0.7324094296      1.0027753673     -2.2471204909
 O      1.6116963269      1.3539763334      0.2424949157
 H      2.1426425028      1.7215401848     -0.5467475869
 H      2.2343843678      1.1069635792      0.9502935196
 O      1.4596018142     -1.2917952895     -0.7888705990
 H      1.3766030863     -1.3972879739     -1.7240279456
 H      2.3911016844     -1.1792789405     -0.6089527114
 O     -1.1795501066      1.5450585421      0.5822250947
 H     -1.9033628676      1.7696599947     -0.0336432550
 H     -0.6946674000      2.3530319938      0.7330718317
 O      4.2591696250     -1.8870075978      0.3248792297
 H      4.0032194596     -2.8002240556      0.2099808907
 H      4.8984398434     -1.6366370393     -0.3530728239
 O     -1.9974669525      0.8312951067     -3.5510778432
 H     -2.8170524473      0.4439926832     -3.3133650785
 H     -1.7874537878      0.5657720955     -4.4461695991
 O     -3.4994777767      2.4510353548     -0.5647839306
 H     -4.0643951922      2.7111393506      0.1598121488
 H     -3.3133754584      3.2453824541     -1.0735140032
 O      2.9838403777     -0.0899648565      2.1043693480
 H      3.5740448891     -0.7406906979      1.6917781219
 H      3.3754558633      0.1507406029      2.9440097641
 O     -3.9975623874     -0.3393885576     -1.5559820602
 H     -4.6854750432     -0.8845849879     -1.1878739724
 H     -4.1442397491      0.5277413336     -1.1703972578
 O      2.0671727322      2.1562195763     -2.5374715149
 H      1.6664513650      3.0089720993     -2.7446885047
 H      2.7283961540      1.9838014409     -3.2104673590
43
# ORCA AIMD Position Step 93, t=46.50 fs, E_Pot=-170997.46972321 kJ mol^-1, Unit is Angstrom
Zn     -0.0265394864     -0.0807736964      0.0496374309
 N      0.1472261663     -0.6823405232      1.9207421140
 C     -0.6674250556     -1.8858301308      1.9097278920
 C     -2.0581060390     -1.5002660523      1.2720251101
 N     -1.7057986785     -1.1756882517     -0.1068433038
 H      1.0866028877     -0.8679209047      2.2396344565
 H     -0.2297469201     -0.0337252805      2.5545599042
 H     -0.2751166744     -2.7405658120      1.3360615787
 H     -0.8833861896     -2.2404926793      2.9543830628
 H     -2.4397642630     -0.6150299629      1.8404237049
 H     -2.7601732960     -2.3547225490      1.4231147744
 H     -1.6545753452     -2.0681855442     -0.6493352930
 H     -2.5352888315     -0.7396745300     -0.5751677819
 O     -0.0534023276      0.5399832315     -1.8447687363
 H     -0.7759277607      0.7154763780     -2.4042535041
 H      0.7318087222      1.0072493699     -2.2446632231
 O      1.6103967013      1.3543533042      0.2419335471
 H      2.1444858619      1.7187579588     -0.5439489713
 H      2.2368827985      1.1043649443      0.9401040432
 O      1.4617304078     -1.2919775082     -0.7884505192
 H      1.3761104147     -1.3878761729     -1.7352087180
 H      2.3923508521     -1.1801822782     -0.6020556056
 O     -1.1790053717      1.5452820701      0.5829616342
 H     -1.9053606778      1.7632797506     -0.0360572021
 H     -0.6855737801      2.3566560835      0.7368800859
 O      4.2613285755     -1.8851643009      0.3243858950
 H      4.0067614756     -2.8053130669      0.2179573992
 H      4.9122046365     -1.6413790827     -0.3394626205
 O     -1.9966432572      0.8337520821     -3.5507772816
 H     -2.8196215028      0.4459046993     -3.3189760929
 H     -1.7736118243      0.5772672484     -4.4635488194
 O     -3.5000051066      2.4498669839     -0.5634681500
 H     -4.0670799864      2.7064896389      0.1746781329
 H     -3.3080865669      3.2444878779     -1.0770565346
 O      2.9828670879     -0.0905989807      2.1055210684
 H      3.5787783315     -0.7355449733      1.6926133952
 H      3.3763896363      0.1501431511      2.9411395319
 O     -3.9977702095     -0.3394649871     -1.5565979564
 H     -4.7027109279     -0.8907918943     -1.1907691020
 H     -4.1572060242      0.5184136712     -1.1681339497
 O      2.0671535931      2.1535628424     -2.5398559877
 H      1.6651005552      3.0049165109     -2.7481192715
 H      2.7364211587      1.9775439798     -3.2229423316
43
# ORCA AIMD Position Step 94, t=47.00 fs, E_Pot=-170993.48893160 kJ mol^-1, Unit is Angstrom
Zn     -0.0266881296     -0.0808606452      0.0499390446
 N      0.1469192437     -0.6854267879      1.9202346285
 C     -0.6701548569     -1.8850451137      1.9096440739
 C     -2.0578288703     -1.4989145646      1.2724866932
 N     -1.7052523433     -1.1743885605     -0.1050450851
 H      1.0886385981     -0.8619198907      2.2317788647
 H     -0.2200464391     -0.0300906612      2.5495046727
 H     -0.2670138411     -2.7401345441      1.3379450140
 H     -0.8879793304     -2.2416320697      2.9683736462
 H     -2.4388514676     -0.6053772631      1.8349853941
 H     -2.7720772896     -2.3672597922      1.4184370049
 H     -1.6593587208     -2.0620228076     -0.6510144356
 H     -2.5421373782     -0.7444287073     -0.5775476286
 O     -0.0543273179      0.5401300939     -1.8453514802
 H     -0.7828759528      0.7275123884     -2.4085046218
 H      0.7298431501      1.0113174097     -2.2411606736
 O      1.6091851270      1.3548240760      0.2411798008
 H      2.1440341089      1.7142595720     -0.5379006925
 H      2.2395257410      1.1015908217      0.9295440423
 O      1.4638106209     -1.2922099488     -0.7879613877
 H      1.3755533728     -1.3784791267     -1.7474336137
 H      2.3948090130     -1.1809075128     -0.5944204529
 O     -1.1784644859      1.5454958068      0.5837027395
 H     -1.9074202799      1.7570736276     -0.0381565752
 H     -0.6763897972      2.3604116615      0.7406285844
 O      4.2634691477     -1.8832658830      0.3238887215
 H      4.0107269355     -2.8105222261      0.2258113227
 H      4.9262029245     -1.6466386643     -0.3256883754
 O     -1.9956609352      0.8363028188     -3.5506214411
 H     -2.8246176316      0.4464937433     -3.3239010661
 H     -1.7602076615      0.5891073411     -4.4797736834
 O     -3.5005517987      2.4486955223     -0.5621373309
 H     -4.0694280125      2.7018923234      0.1893054619
 H     -3.3030033453      3.2432089540     -1.0804041624
 O      2.9818916264     -0.0912626145      2.1066777577
 H      3.5833284956     -0.7302519532      1.6931622754
 H      3.3776348611      0.1497734729      2.9387540788
 O     -3.9980301452     -0.3396221006     -1.5572006908
 H     -4.7197089485     -0.8971305672     -1.1943101460
 H     -4.1699874273      0.5107788717     -1.1657080869
 O      2.0671797237      2.1508785861     -2.5423208030
 H      1.6639145829      3.0005458388     -2.7514838062
 H      2.7437110238      1.9714855581     -3.2346609043
43
# ORCA AIMD Position Step 95, t=47.50 fs, E_Pot=-170988.26243980 kJ mol^-1, Unit is Angstrom
Zn     -0.0268259104     -0.0809270612      0.0502290353
 N      0.1466988896     -0.6887406049      1.9194667818
 C     -0.6732672311     -1.8843653673      1.9098441411
 C     -2.0573819281     -1.4976656236      1.2731574827
 N     -1.7049633041     -1.1731878795     -0.1034124389
 H      1.0918414139     -0.8563377980      2.2239172381
 H     -0.2120647865     -0.0240891073      2.5469222632
 H     -0.2584655276     -2.7380258109      1.3404306123
 H     -0.8917653086     -2.2423734030      2.9802570713
 H     -2.4374236855     -0.5974092385      1.8277837920
 H     -2.7825826938     -2.3776351347      1.4128427583
 H     -1.6633872642     -2.0541295095     -0.6511928761
 H     -2.5472277512     -0.7492810594     -0.5791416504
 O     -0.0549654950      0.5402750237     -1.8458413298
 H     -0.7932329481      0.7403617906     -2.4152696692
 H      0.7265569409      1.0149699000     -2.2366367281
 O      1.6080436867      1.3553852926      0.2402380336
 H      2.1414257010      1.7082355924     -0.5290206029
 H      2.2424835224      1.0985175200      0.9189910479
 O      1.4658401499     -1.2924973460     -0.7874744450
 H      1.3751423322     -1.3689657159     -1.7594231435
 H      2.3982838960     -1.1815025671     -0.5861907742
 O     -1.1779087030      1.5457368033      0.5844513078
 H     -1.9093323197      1.7511272180     -0.0397739723
 H     -0.6676388050      2.3636420283      0.7441048501
 O      4.2655638732     -1.8813504654      0.3234014990
 H      4.0152941490     -2.8152869769      0.2335768614
 H      4.9406726546     -1.6523666976     -0.3120085697
 O     -1.9945274347      0.8389164692     -3.5506818799
 H     -2.8314683296      0.4459697899     -3.3284140617
 H     -1.7477097620      0.6015780161     -4.4934261033
 O     -3.5011468777      2.4475465129     -0.5607564967
 H     -4.0707955633      2.6972128374      0.2028003675
 H     -3.2982998299      3.2412804770     -1.0832241991
 O      2.9809109641     -0.0919587816      2.1078265464
 H      3.5876782141     -0.7248675184      1.6933668120
 H      3.3792579633      0.1497299811      2.9370990847
 O     -3.9984095147     -0.3399296325     -1.5577627418
 H     -4.7353855683     -0.9028773957     -1.1990495241
 H     -4.1825773374      0.5052145906     -1.1630000263
 O      2.0673014957      2.1481495288     -2.5449131080
 H      1.6629014621      2.9959116184     -2.7548260841
 H      2.7494534238      1.9658688902     -3.2448155422
43
# ORCA AIMD Position Step 96, t=48.00 fs, E_Pot=-170983.20272341 kJ mol^-1, Unit is Angstrom
Zn     -0.0269535378     -0.0809732435      0.0505070133
 N      0.1465577734     -0.6922594697      1.9184437933
 C     -0.6767540037     -1.8838125693      1.9103767944
 C     -2.0568067581     -1.4965555827      1.2740334680
 N     -1.7049522580     -1.1720615095     -0.1019499616
 H      1.0962517591     -0.8513091379      2.2160635906
 H     -0.2057717800     -0.0158771453      2.5466827152
 H     -0.2496645641     -2.7341763785      1.3436174962
 H     -0.8946629558     -2.2425727372      2.9894714170
 H     -2.4354941980     -0.5913232246      1.8188769704
 H     -2.7911922756     -2.3851933036      1.4063572799
 H     -1.6665317701     -2.0448832044     -0.6500136005
 H     -2.5503999815     -0.7541896487     -0.5798098023
 O     -0.0553994025      0.5404332127     -1.8462916665
 H     -0.8058443718      0.7537166861     -2.4236467721
 H      0.7220658621      1.0182548888     -2.2311606864
 O      1.6069426952      1.3560271080      0.2391283458
 H      2.1369717675      1.7009879328     -0.5179718651
 H      2.2459119540      1.0950140571      0.9087900417
 O      1.4678290634     -1.2928418853     -0.7870508487
 H      1.3750791165     -1.3592229871     -1.7700329226
 H      2.4024675278     -1.1820302750     -0.5775262547
 O     -1.1773201365      1.5460365050      0.5852118144
 H     -1.9109173156      1.7455156269     -0.0407679782
 H     -0.6597700940      2.3657901694      0.7471238501
 O      4.2675933267     -1.8794478088      0.3229339061
 H      4.0206214672     -2.8191160522      0.2412971340
 H      4.9558466898     -1.6585329236     -0.2985990086
 O     -1.9932678585      0.8415682472     -3.5510055671
 H     -2.8393810364      0.4446532950     -3.3328299788
 H     -1.7364625334      0.6148700455     -4.5034650824
 O     -3.5018139230      2.4464350730     -0.5592940948
 H     -4.0706733647      2.6923590034      0.2144530815
 H     -3.2941154546      3.2385085474     -1.0852484316
 O      2.9799224035     -0.0926902052      2.1089620522
 H      3.5918213381     -0.7194346383      1.6931757255
 H      3.3812901180      0.1500825254      2.9363274800
 O     -3.9989658448     -0.3404336345     -1.5582608639
 H     -4.7488910530     -0.9074754179     -1.2054119207
 H     -4.1949605435      0.5018584647     -1.1599759087
 O      2.0675579684      2.1453549532     -2.5476726063
 H      1.6620516775      2.9910865290     -2.7582006156
 H      2.7530531428      1.9608698755     -3.2528217961
43
# ORCA AIMD Position Step 97, t=48.50 fs, E_Pot=-170979.47105964 kJ mol^-1, Unit is Angstrom
Zn     -0.0270711141     -0.0809992235      0.0507712046
 N      0.1464853632     -0.6959207730      1.9171996337
 C     -0.6805846713     -1.8834019756      1.9112783577
 C     -2.0561371940     -1.4956205905      1.2750971225
 N     -1.7052299489     -1.1709839367     -0.1006584528
 H      1.1017504203     -0.8469605036      2.2082438521
 H     -0.2009829409     -0.0059804638      2.5483590289
 H     -0.2408275807     -2.7286193826      1.3475339218
 H     -0.8966199209     -2.2421369899      2.9955822413
 H     -2.4331210795     -0.5872242519      1.8084486048
 H     -2.7975014919     -2.3894271999      1.3990726129
 H     -1.6686455429     -2.0348581589     -0.6477281610
 H     -2.5515991304     -0.7590298308     -0.5794717113
 O     -0.0557211983      0.5406188366     -1.8467542022
 H     -0.8194098300      0.7671433518     -2.4326307454
 H      0.7165996209      1.0212574063     -2.2248800362
 O      1.6058494036      1.3567278180      0.2378966415
 H      2.1311958682      1.6929812375     -0.5057430020
 H      2.2499010945      1.0909792928      0.8992917853
 O      1.4697839296     -1.2932411653     -0.7867397100
 H      1.3755437090     -1.3492280518     -1.7782711704
 H      2.4069527643     -1.1825590117     -0.5686495586
 O     -1.1766870694      1.5464159751      0.5859849514
 H     -1.9120274091      1.7403429024     -0.0410264628
 H     -0.6531823008      2.3664273756      0.7495185076
 O      4.2695349050     -1.8775892498      0.3224931668
 H      4.0267987988     -2.8216079225      0.2489681368
 H      4.9718112500     -1.6650929391     -0.2856183517
 O     -1.9919259204      0.8442236250     -3.5516154973
 H     -2.8474223309      0.4429221074     -3.3374323015
 H     -1.7267686787      0.6290030260     -4.5091582781
 O     -3.5025655941      2.4453722160     -0.5577334195
 H     -4.0687083234      2.6873195462      0.2236922143
 H     -3.2905771412      3.2348085179     -1.0862756312
 O      2.9789312688     -0.0934540440      2.1100795724
 H      3.5957328299     -0.7140167217      1.6925493711
 H      3.3837015003      0.1508624042      2.9364835375
 O     -3.9997423270     -0.3411514338     -1.5586716076
 H     -4.7595423071     -0.9105172875     -1.2136547331
 H     -4.2070123227      0.5006228498     -1.1567212176
 O      2.0679743688      2.1424910238     -2.5506118399
 H      1.6613468207      2.9861888477     -2.7616469021
 H      2.7541161311      1.9566288715     -3.2582718286
43
# ORCA AIMD Position Step 98, t=49.00 fs, E_Pot=-170977.87195191 kJ mol^-1, Unit is Angstrom
Zn     -0.0271780732     -0.0810050378      0.0510182913
 N      0.1464708160     -0.6996201528      1.9157953003
 C     -0.6846955822     -1.8831412430      1.9125657134
 C     -2.0554025677     -1.4948963781      1.2763137304
 N     -1.7057917672     -1.1699313814     -0.0995352465
 H      1.1080428418     -0.8434088681      2.2005126635
 H     -0.1974057087      0.0047565097      2.5512910222
 H     -0.2322039683     -2.7215207528      1.3521182096
 H     -0.8976223138     -2.2410313197      2.9983187902
 H     -2.4304206289     -0.5850968741      1.7968428204
 H     -2.8012191550     -2.3900151442      1.3911655850
 H     -1.6695825277     -2.0248241908     -0.6447035154
 H     -2.5509035938     -0.7635943960     -0.5781248786
 O     -0.0560212426      0.5408410221     -1.8472693148
 H     -0.8326367399      0.7801143804     -2.4412361738
 H      0.7105166730      1.0240987305     -2.2180352655
 O      1.6047315181      1.3574516710      0.2366190808
 H      2.1248572359      1.6848542164     -0.4936673498
 H      2.2544342588      1.0863706670      0.8908251618
 O      1.4717025059     -1.2936873985     -0.7865745430
 H      1.3766755488     -1.3390637603     -1.7833754326
 H      2.4112743563     -1.1831543207     -0.5598487141
 O     -1.1760064999      1.5468823607      0.5867661598
 H     -1.9125623372      1.7357415062     -0.0404867588
 H     -0.6481899710      2.3653057425      0.7511545972
 O      4.2713634859     -1.8758077393      0.3220833192
 H      4.0338157094     -2.8225006358      0.2565278779
 H      4.9884383411     -1.6719755925     -0.2732064002
 O     -1.9905595684      0.8468363524     -3.5525080570
 H     -2.8546309465      0.4411631100     -3.3424290671
 H     -1.7188764898      0.6438098493     -4.5101313158
 O     -3.5034008404      2.4443652016     -0.5560773819
 H     -4.0647466042      2.6821739667      0.2301319250
 H     -3.2877887355      3.2302371037     -1.0861983499
 O      2.9779528133     -0.0942402391      2.1111736743
 H      3.5993617827     -0.7087034982      1.6914686203
 H      3.3863917307      0.1520532506      2.9374850435
 O     -4.0007627138     -0.3420688457     -1.5589721568
 H     -4.7668555878     -0.9117665712     -1.2238308772
 H     -4.2184818554      0.5011932461     -1.1534402022
 O      2.0685583332      2.1395773670     -2.5537084419
 H      1.6607619982      2.9813802408     -2.7651763554
 H      2.7524921202      1.9532409220     -3.2609704939
43
# ORCA AIMD Position Step 99, t=49.50 fs, E_Pot=-170978.76872293 kJ mol^-1, Unit is Angstrom
Zn     -0.0272749442     -0.0809910558      0.0512475357
 N      0.1465053920     -0.7032787687      1.9142889197
 C     -0.6890520302     -1.8830251082      1.9142512471
 C     -2.0546171226     -1.4944047422      1.2776501047
 N     -1.7066230919     -1.1688684506     -0.0985568512
 H      1.1147809410     -0.8407010115      2.1928401124
 H     -0.1946451279      0.0154651557      2.5547456155
 H     -0.2239316982     -2.7130809571      1.3572847507
 H     -0.8977193007     -2.2392676277      2.9976579413
 H     -2.4275258959     -0.5847498541      1.7843853099
 H     -2.8022553392     -2.3868701078      1.3827737197
 H     -1.6692333720     -2.0155278983     -0.6413490686
 H     -2.5485304065     -0.7676800579     -0.5758358558
 O     -0.0563840131      0.5411048171     -1.8478687628
 H     -0.8445677693      0.7922647706     -2.4487289658
 H      0.7041950956      1.0269737060     -2.2108453913
 O      1.6035443036      1.3581618143      0.2353780133
 H      2.1188047019      1.6772490361     -0.4831378328
 H      2.2594339620      1.0811515818      0.8835285207
 O      1.4736011053     -1.2941748213     -0.7865681300
 H      1.3785759873     -1.3287526131     -1.7849618577
 H      2.4150354181     -1.1838801220     -0.5513212969
 O     -1.1752746740      1.5474342921      0.5875576710
 H     -1.9124922113      1.7317897791     -0.0391424846
 H     -0.6449090677      2.3623816363      0.7519726045
 O      4.2730825888     -1.8741079278      0.3216983902
 H      4.0416579405     -2.8217272586      0.2639782424
 H      5.0056229241     -1.6791835043     -0.2612839749
 O     -1.9892134817      0.8493918020     -3.5536654287
 H     -2.8602501149      0.4396998074     -3.3480025697
 H     -1.7128309365      0.6591723761     -4.5064343468
 O     -3.5043169822      2.4434013344     -0.5543243525
 H     -4.0588005274      2.6770097248      0.2337215290
 H     -3.2857733121      3.2249322495     -1.0850204122
 O      2.9769963586     -0.0950438501      2.1122545097
 H      3.6026903694     -0.7035243620      1.6899251349
 H      3.3892367318      0.1536080290      2.9391442172
 O     -4.0020432281     -0.3431565217     -1.5591476909
 H     -4.7707086554     -0.9111979484     -1.2359335521
 H     -4.2291907603      0.5030846514     -1.1503737908
 O      2.0693063709      2.1366130709     -2.5569516281
 H      1.6602606533      2.9767742653     -2.7688207756
 H      2.7482846058      1.9506889908     -3.2610143637
43
# ORCA AIMD Position Step 100, t=50.00 fs, E_Pot=-170982.06890801 kJ mol^-1, Unit is Angstrom
Zn     -0.0273627905     -0.0809575071      0.0514597120
 N      0.1465851984     -0.7068412709      1.9127284437
 C     -0.6936433189     -1.8830401839      1.9163474110
 C     -2.0537811017     -1.4941604543      1.2790756261
 N     -1.7077043204     -1.1677556808     -0.0976889187
 H      1.1216017759     -0.8388492170      2.1851450599
 H     -0.1922985633      0.0253563367      2.5580364350
 H     -0.2160656358     -2.7035136710      1.3629303283
 H     -0.8969968636     -2.2368911896      2.9937399504
 H     -2.4245843276     -0.5858719638      1.7713811056
 H     -2.8006499493     -2.3800502651      1.3739994577
 H     -1.6675004853     -2.0076541238     -0.6380686852
 H     -2.5447864121     -0.7710777959     -0.5727197965
 O     -0.0568840321      0.5414115811     -1.8485756717
 H     -0.8545449023      0.8033527301     -2.4546015011
 H      0.6980084706      1.0301327348     -2.2035002473
 O      1.6022392954      1.3588228409      0.2342555295
 H      2.1138826943      1.6707594056     -0.4754946409
 H      2.2647610112      1.0752980628      0.8773880771
 O      1.4755060801     -1.2947001262     -0.7867169729
 H      1.3813195046     -1.3182763910     -1.7829405448
 H      2.4179283179     -1.1847945069     -0.5431896495
 O     -1.1744881656      1.5480624886      0.5883664224
 H     -1.9118442716      1.7285367117     -0.0370277785
 H     -0.6433018556      2.3577788334      0.7519672388
 O      4.2747162301     -1.8724731812      0.3213250796
 H      4.0503073792     -2.8193812464      0.2713642733
 H      5.0232568910     -1.6867728791     -0.2496174216
 O     -1.9879197794      0.8518992578     -3.5550597380
 H     -2.8637406341      0.4387722185     -3.3543002244
 H     -1.7085288013      0.6750077474     -4.4984359441
 O     -3.5053093745      2.4424526832     -0.5524711477
 H     -4.0510115132      2.6719315488      0.2346689038
 H     -3.2844985117      3.2191006694     -1.0828295974
 O      2.9760675862     -0.0958638600      2.1133425008
 H      3.6057165440     -0.6984655208      1.6879148987
 H      3.3921000128      0.1554628467      2.9412111442
 O     -4.0035940209     -0.3443767136     -1.5591895378
 H     -4.7712456703     -0.9089516790     -1.2499212229
 H     -4.2390050141      0.5057554904     -1.1477735718
 O      2.0702054319      2.1335845505     -2.5603369282
 H      1.6598033941      2.9724395594     -2.7726203857
 H      2.7417965545      1.9488707037     -3.2587254697
43
# ORCA AIMD Position Step 101, t=50.50 fs, E_Pot=-170987.08144405 kJ mol^-1, Unit is Angstrom
Zn     -0.0274425264     -0.0809043849      0.0516555584
 N      0.1467111324     -0.7102580046      1.9111550983
 C     -0.6984585617     -1.8831674631      1.9188591173
 C     -2.0528850886     -1.4941754967      1.2805560385
 N     -1.7090085826     -1.1665605357     -0.0968970675
 H      1.1281277376     -0.8378632051      2.1773507363
 H     -0.1900122623      0.0337248785      2.5605667246
 H     -0.2086329073     -2.6930775964      1.3689133760
 H     -0.8955689640     -2.2339868448      2.9868483437
 H     -2.4217701052     -0.5880586875      1.7581739983
 H     -2.7965462901     -2.3697464847      1.3649551292
 H     -1.6642930721     -2.0018135597     -0.6352308663
 H     -2.5400582479     -0.7735524246     -0.5689433381
 O     -0.0575840663      0.5417592014     -1.8494042242
 H     -0.8620868283      0.8131806232     -2.4584944064
 H      0.6923359857      1.0338425403     -2.1961826438
 O      1.6007793201      1.3594022570      0.2333275910
 H      2.1108222258      1.6658840965     -0.4718917336
 H      2.2702004340      1.0688279749      0.8722977116
 O      1.4774407585     -1.2952605398     -0.7870033420
 H      1.3849506921     -1.3076287409     -1.7774722989
 H      2.4197286524     -1.1859444589     -0.5355478450
 O     -1.1736479823      1.5487473781      0.5891992977
 H     -1.9106957522      1.7260313100     -0.0342157163
 H     -0.6432119516      2.3517902424      0.7511748997
 O      4.2762961255     -1.8708774302      0.3209468146
 H      4.0597057163     -2.8157012701      0.2787318462
 H      5.0411516968     -1.6948033894     -0.2379217876
 O     -1.9867059264      0.8543761320     -3.5566469866
 H     -2.8647497034      0.4385394996     -3.3614098484
 H     -1.7057643812      0.6911878606     -4.4868270376
 O     -3.5063666134      2.4414830490     -0.5505235227
 H     -4.0416648597      2.6670919963      0.2333984382
 H     -3.2838988635      3.2130319334     -1.0797863363
 O      2.9751735651     -0.0966990383      2.1144597950
 H      3.6084313866     -0.6935033344      1.6854420347
 H      3.3948311884      0.1575402174      2.9434010407
 O     -4.0054119495     -0.3456819070     -1.5590945108
 H     -4.7688333746     -0.9053264734     -1.2656689685
 H     -4.2477825375      0.5086715252     -1.1458910011
 O      2.0712291304      2.1304835580     -2.5638475260
 H      1.6593465858      2.9684197591     -2.7765999267
 H      2.7335379108      1.9476189623     -3.2546352880
43
# ORCA AIMD Position Step 102, t=51.00 fs, E_Pot=-170992.30288145 kJ mol^-1, Unit is Angstrom
Zn     -0.0275136750     -0.0808324769      0.0518326849
 N      0.1468851005     -0.7134331387      1.9096265574
 C     -0.7034056577     -1.8833798287      1.9217373698
 C     -2.0519248015     -1.4944542546      1.2820300589
 N     -1.7104793009     -1.1652828188     -0.0961635549
 H      1.1338978994     -0.8377652669      2.1695205712
 H     -0.1875357179      0.0398705654      2.5618274795
 H     -0.2017550317     -2.6822428331      1.3749612530
 H     -0.8936070542     -2.2307345177      2.9775591954
 H     -2.4193214143     -0.5907868938      1.7453500462
 H     -2.7902902907     -2.3564904158      1.3559119597
 H     -1.6595991322     -1.9985366391     -0.6331581491
 H     -2.5348804365     -0.7748221878     -0.5647852712
 O     -0.0585214525      0.5421379947     -1.8503480652
 H     -0.8667626675      0.8214478536     -2.4601185462
 H      0.6876121450      1.0382915475     -2.1891668080
 O      1.5991732775      1.3598684644      0.2326611821
 H      2.1101012505      1.6629886100     -0.4730787196
 H      2.2753916377      1.0619079021      0.8681506423
 O      1.4793925245     -1.2958449149     -0.7873896119
 H      1.3894183109     -1.2969821139     -1.7690896416
 H      2.4202885352     -1.1873428707     -0.5285780413
 O     -1.1727738424      1.5494480190      0.5900491299
 H     -1.9091914735      1.7243567213     -0.0308645990
 H     -0.6443569818      2.3449775646      0.7496903673
 O      4.2778340168     -1.8693125949      0.3205516593
 H      4.0696005925     -2.8111272378      0.2860108731
 H      5.0587736713     -1.7031931732     -0.2260814343
 O     -1.9856144635      0.8568073289     -3.5583373873
 H     -2.8631202483      0.4390747750     -3.3692432805
 H     -1.7042480872      0.7072775592     -4.4728719196
 O     -3.5074527009      2.4404654025     -0.5485297525
 H     -4.0313486125      2.6627682427      0.2305890467
 H     -3.2838864865      3.2071774355     -1.0761655477
 O      2.9743360074     -0.0975346985      2.1156097104
 H      3.6107784626     -0.6886867821      1.6825610282
 H      3.3972386966      0.1597236312      2.9453907926
 O     -4.0074465461     -0.3469954011     -1.5588687345
 H     -4.7641386083     -0.9008604259     -1.2827037258
 H     -4.2552571864      0.5113080189     -1.1449745406
 O      2.0723197158      2.1273588523     -2.5673956774
 H      1.6588649773      2.9647911624     -2.7807015215
 H      2.7243719372      1.9467175248     -3.2495691700
43
# ORCA AIMD Position Step 103, t=51.50 fs, E_Pot=-170995.78108926 kJ mol^-1, Unit is Angstrom
Zn     -0.0275764941     -0.0807422079      0.0519907576
 N      0.1471108922     -0.7163170452      1.9081744545
 C     -0.7084331297     -1.8836454314      1.9249377901
 C     -2.0508786630     -1.4949871282      1.2834497142
 N     -1.7120639670     -1.1639292399     -0.0954709842
 H      1.1385800300     -0.8385596592      2.1616646816
 H     -0.1846762449      0.0433693306      2.5614974598
 H     -0.1954582939     -2.6714081075      1.3808372741
 H     -0.8913063273     -2.2273403845      2.9665936208
 H     -2.4174485998     -0.5935055199      1.7333692070
 H     -2.7823592853     -2.3409302044      1.3470638939
 H     -1.6534298734     -1.9980154463     -0.6319956294
 H     -2.5297823002     -0.7746564411     -0.5605268198
 O     -0.0597214849      0.5425414515     -1.8514028824
 H     -0.8683973088      0.8280224180     -2.4593537466
 H      0.6841248986      1.0436419755     -2.1826078836
 O      1.5974467342      1.3602122302      0.2322743501
 H      2.1117044876      1.6620821737     -0.4790705022
 H      2.2800047672      1.0546831958      0.8647244929
 O      1.4813613845     -1.2964483896     -0.7878252237
 H      1.3946601469     -1.2864053327     -1.7585815960
 H      2.4196080995     -1.1889937494     -0.5223404155
 O     -1.1718826002      1.5501214443      0.5909156161
 H     -1.9075069402      1.7235550532     -0.0271407727
 H     -0.6463309916      2.3379952657      0.7476463945
 O      4.2793592440     -1.8677503076      0.3201247373
 H      4.0797897547     -2.8061811866      0.2932066566
 H      5.0757443872     -1.7119098548     -0.2138870288
 O     -1.9846705526      0.8592080863     -3.5600353214
 H     -2.8589475912      0.4403478066     -3.3777174675
 H     -1.7035230650      0.7229651007     -4.4581277578
 O     -3.5085347927      2.4393605805     -0.5465310550
 H     -4.0206958069      2.6592239918      0.2271259918
 H     -3.2843409723      3.2019545379     -1.0722575445
 O      2.9735665340     -0.0983646078      2.1168028911
 H      3.6127297085     -0.6840117559      1.6793153120
 H      3.3991810000      0.1619208635      2.9469129031
 O     -4.0096434557     -0.3482476504     -1.5585267568
 H     -4.7580858755     -0.8962417939     -1.3006090942
 H     -4.2612943733      0.5132700454     -1.1451909079
 O      2.0734157574      2.1242365175     -2.5709143486
 H      1.6583446999      2.9615529855     -2.7848863722
 H      2.7152739805      1.9458769313     -3.2445139725
43
# ORCA AIMD Position Step 104, t=52.00 fs, E_Pot=-170995.91417412 kJ mol^-1, Unit is Angstrom
Zn     -0.0276319152     -0.0806328419      0.0521313791
 N      0.1473945415     -0.7189081726      1.9068014184
 C     -0.7135477644     -1.8839318839      1.9284387540
 C     -2.0497028510     -1.4957548342      1.2847863780
 N     -1.7137258697     -1.1625083670     -0.0948049406
 H      1.1419845537     -0.8402633510      2.1537190168
 H     -0.1812850401      0.0440270821      2.5594070730
 H     -0.1896812633     -2.6608398688      1.3863726745
 H     -0.8888614015     -2.2240195108      2.9547202419
 H     -2.4163214505     -0.5957055634      1.7225171419
 H     -2.7732921587     -2.3237124842      1.3384993763
 H     -1.6457690819     -2.0001385549     -0.6317067414
 H     -2.5252196628     -0.7728616338     -0.5564075286
 O     -0.0612062695      0.5429702090     -1.8525745488
 H     -0.8669771853      0.8329132076     -2.4561658556
 H      0.6819916230      1.0500364157     -2.1765185421
 O      1.5956314301      1.3604447839      0.2321404803
 H      2.1151894391      1.6628790918     -0.4892951146
 H      2.2837749867      1.0472328340      0.8617267240
 O      1.4833658204     -1.2970752972     -0.7882517247
 H      1.4006457847     -1.2758242501     -1.7468668187
 H      2.4177950110     -1.1909049865     -0.5167731498
 O     -1.1709837576      1.5507277352      0.5918082203
 H     -1.9058202654      1.7236483467     -0.0231802298
 H     -0.6486742755      2.3315035525      0.7451773063
 O      4.2809188722     -1.8661414942      0.3196477613
 H      4.0901790703     -2.8013826397      0.3004209966
 H      5.0919168264     -1.7209998189     -0.2010183830
 O     -1.9838821399      0.8616283325     -3.5616504171
 H     -2.8524867966      0.4422462590     -3.3868088910
 H     -1.7030128545      0.7381293636     -4.4442748734
 O     -3.5095889675      2.4381161929     -0.5445529011
 H     -4.0102827844      2.6567001885      0.2239891287
 H     -3.2851408218      3.1976968095     -1.0683093690
 O      2.9728652002     -0.0991937109      2.1180602941
 H      3.6142826315     -0.6794152483      1.6757137002
 H      3.4005749736      0.1640816004      2.9477783588
 O     -4.0119579651     -0.3493826624     -1.5580855746
 H     -4.7517469518     -0.8922500845     -1.3191438603
 H     -4.2658811994      0.5143085788     -1.1466425568
 O      2.0744616552      2.1211088618     -2.5743726704
 H      1.6577825709      2.9586299101     -2.7891548562
 H      2.7072071444      1.9447652745     -3.2405026178
43
# ORCA AIMD Position Step 105, t=52.50 fs, E_Pot=-170992.63452242 kJ mol^-1, Unit is Angstrom
Zn     -0.0276801326     -0.0805044607      0.0522544774
 N      0.1477381861     -0.7211880106      1.9055140753
 C     -0.7187017690     -1.8842016661      1.9321701604
 C     -2.0483550549     -1.4967123969      1.2860010326
 N     -1.7154119180     -1.1610582993     -0.0941705313
 H      1.1439700033     -0.8428924328      2.1457214430
 H     -0.1773174056      0.0417951163      2.5555385784
 H     -0.1844289259     -2.6508973041      1.3913494223
 H     -0.8865121694     -2.2210699985      2.9429851179
 H     -2.4160929510     -0.5969116359      1.7131510484
 H     -2.7638717601     -2.3058283546      1.3303959397
 H     -1.6367150854     -2.0045216141     -0.6321101959
 H     -2.5216424732     -0.7693038480     -0.5526941716
 O     -0.0629673116      0.5434241413     -1.8538567995
 H     -0.8626020882      0.8361200248     -2.4506194313
 H      0.6812195064      1.0574616318     -2.1709101408
 O      1.5937947690      1.3605857581      0.2322062835
 H      2.1197742787      1.6649018612     -0.5026367565
 H      2.2864211386      1.0397176429      0.8588999218
 O      1.4853986657     -1.2977261800     -0.7885957190
 H      1.4072700020     -1.2652487331     -1.7351815541
 H      2.4150695781     -1.1930540471     -0.5118351732
 O     -1.1700975353      1.5512189350      0.5927269773
 H     -1.9043337505      1.7246577949     -0.0191571507
 H     -0.6508755164      2.3262604008      0.7424479052
 O      4.2825411282     -1.8644551230      0.3191093762
 H      4.1005688575     -2.7972994433      0.3076929260
 H      5.1070198554     -1.7303917508     -0.1873316201
 O     -1.9832587650      0.8640970358     -3.5630692293
 H     -2.8442369032      0.4445525644     -3.3963727646
 H     -1.7020872557      0.7525152221     -4.4332755352
 O     -3.5105793673      2.4366952406     -0.5426454565
 H     -4.0007957346      2.6554731079      0.2222285397
 H     -3.2861706565      3.1947296122     -1.0645776220
 O      2.9722372085     -0.1000197837      2.1193858093
 H      3.6154180122     -0.6748827739      1.6717996400
 H      3.4013595367      0.1661539860      2.9478573397
 O     -4.0143106434     -0.3503337818     -1.5575701641
 H     -4.7463970948     -0.8898023861     -1.3378754975
 H     -4.2689960120      0.5142810449     -1.1493635240
 O      2.0753909662      2.1180015585     -2.5777049141
 H      1.6571980034      2.9559509906     -2.7934571458
 H      2.7012007096      1.9430647853     -3.2385993220
43
# ORCA AIMD Position Step 106, t=53.00 fs, E_Pot=-170988.02273049 kJ mol^-1, Unit is Angstrom
Zn     -0.0277213534     -0.0803570009      0.0523601236
 N      0.1481417492     -0.7231550575      1.9043065716
 C     -0.7238495197     -1.8844172385      1.9360513188
 C     -2.0467854976     -1.4977920176      1.2870629366
 N     -1.7170742584     -1.1596257590     -0.0935835429
 H      1.1445072295     -0.8464695228      2.1377224863
 H     -0.1728003824      0.0368191864      2.5500260849
 H     -0.1797129404     -2.6418897239      1.3955844093
 H     -0.8845065729     -2.2188217326      2.9325415468
 H     -2.4168556630     -0.5967710902      1.7055360565
 H     -2.7550219183     -2.2884137047      1.3229124586
 H     -1.6264163070     -2.0105528699     -0.6329024849
 H     -2.5193835479     -0.7639347875     -0.5496014567
 O     -0.0649776923      0.5439065672     -1.8552416050
 H     -0.8555258171      0.8377186208     -2.4428885993
 H      0.6816639636      1.0658031673     -2.1657224145
 O      1.5920077901      1.3606611501      0.2324010649
 H      2.1245334759      1.6675806107     -0.5177458440
 H      2.2877219271      1.0322854557      0.8560071099
 O      1.4874493047     -1.2984047787     -0.7887800087
 H      1.4144228094     -1.2546458589     -1.7248591120
 H      2.4117444200     -1.1954093839     -0.5074375415
 O     -1.1692418909      1.5515527693      0.5936725688
 H     -1.9032356296      1.7265907622     -0.0152261375
 H     -0.6524583395      2.3229478584      0.7396102591
 O      4.2842502577     -1.8626651038      0.3185010146
 H      4.1107853642     -2.7944173925      0.3150805845
 H      5.1208747579     -1.7399962105     -0.1727314844
 O     -1.9827950924      0.8666465205     -3.5641937010
 H     -2.8348821437      0.4469599200     -3.4062497389
 H     -1.7001540844      0.7659559286     -4.4268941445
 O     -3.5114758365      2.4350689874     -0.5408532810
 H     -3.9928081256      2.6557736680      0.2227680781
 H     -3.2873422799      3.1932661027     -1.0612487054
 O      2.9716835379     -0.1008429622      2.1207791567
 H      3.6161256627     -0.6703975937      1.6676137384
 H      3.4015238384      0.1681135040      2.9471074132
 O     -4.0166220613     -0.3510458932     -1.5570061753
 H     -4.7432808596     -0.8897738670     -1.3564471791
 H     -4.2706867180      0.5131735592     -1.1533115643
 O      2.0761503293      2.1149343535     -2.5808619319
 H      1.6566271102      2.9534204801     -2.7977466730
 H      2.6980637617      1.9405170270     -3.2396524218
43
# ORCA AIMD Position Step 107, t=53.50 fs, E_Pot=-170985.17154933 kJ mol^-1, Unit is Angstrom
Zn     -0.0277555286     -0.0801913221      0.0524477749
 N      0.1485998535     -0.7248116210      1.9031692446
 C     -0.7289120324     -1.8845429627      1.9399701518
 C     -2.0449538770     -1.4988978265      1.2879441912
 N     -1.7186626364     -1.1582685131     -0.0930720777
 H      1.1436775239     -0.8509980327      2.1298398116
 H     -0.1678641652      0.0294773225      2.5431949066
 H     -0.1755969829     -2.6341213737      1.3989170715
 H     -0.8830947469     -2.2176226497      2.9246224078
 H     -2.4186196827     -0.5951047704      1.6998791232
 H     -2.7478078320     -2.2727918349      1.3162332288
 H     -1.6151390078     -2.0174408480     -0.6337081389
 H     -2.5186277690     -0.7568498672     -0.5472847431
 O     -0.0671777992      0.5444191860     -1.8567071043
 H     -0.8462340873      0.8378599835     -2.4333346422
 H      0.6830501678      1.0747998012     -2.1608764377
 O      1.5903460226      1.3606972559      0.2326491461
 H      2.1285375435      1.6703376435     -0.5331738310
 H      2.2875231262      1.0251095799      0.8528759521
 O      1.4894893855     -1.2991128825     -0.7887330722
 H      1.4219573853     -1.2440166194     -1.7172227521
 H      2.4082256107     -1.1979166991     -0.5034820768
 O     -1.1684350103      1.5516973673      0.5946400066
 H     -1.9026867742      1.7294252413     -0.0115323717
 H     -0.6530478366      2.3220842937      0.7368005896
 O      4.2860524363     -1.8607674988      0.3178216616
 H      4.1206214373     -2.7930849549      0.3226048603
 H      5.1333144103     -1.7496414177     -0.1572792613
 O     -1.9824677490      0.8692911163     -3.5649580880
 H     -2.8253153901      0.4490706485     -3.4162121184
 H     -1.6968163407      0.7783151410     -4.4263284531
 O     -3.5122536888      2.4332335988     -0.5392183141
 H     -3.9867263833      2.6577375979      0.2262181641
 H     -3.2885997322      3.1933835210     -1.0584339618
 O      2.9712045849     -0.1016599393      2.1222259233
 H      3.6164009458     -0.6659745705      1.6632214989
 H      3.4011088881      0.1699517566      2.9455829326
 O     -4.0188116251     -0.3514816864     -1.5564193333
 H     -4.7433900892     -0.8928159496     -1.3745179521
 H     -4.2710615011      0.5111069933     -1.1583418994
 O      2.0767060722      2.1119386945     -2.5838007606
 H      1.6561234517      2.9509459874     -2.8019565059
 H      2.6982208000      1.9369970806     -3.2440900204
43
# ORCA AIMD Position Step 108, t=54.00 fs, E_Pot=-170985.99787961 kJ mol^-1, Unit is Angstrom
Zn     -0.0277826348     -0.0800087972      0.0525169286
 N      0.1491032471     -0.7261760166      1.9020831125
 C     -0.7338022556     -1.8845516148      1.9438111105
 C     -2.0428352922     -1.4999200871      1.2886275083
 N     -1.7201357913     -1.1570405325     -0.0926695124
 H      1.1416830319     -0.8564657244      2.1222182639
 H     -0.1627241141      0.0203787927      2.5355468818
 H     -0.1721777843     -2.6278236170      1.4012528326
 H     -0.8824866654     -2.2177694064      2.9203108966
 H     -2.4212980224     -0.5919506286      1.6962654518
 H     -2.7432565668     -2.2602308531      1.3105178942
 H     -1.6032198994     -2.0243344602     -0.6341443252
 H     -2.5193596797     -0.7482922215     -0.5457989942
 O     -0.0694830853      0.5449611368     -1.8582200298
 H     -0.8354670260      0.8368024638     -2.4225157004
 H      0.6850071651      1.0841030894     -2.1562723575
 O      1.5888722058      1.3607178908      0.2328799209
 H      2.1310015139      1.6726685266     -0.5476075398
 H      2.2857733575      1.0183414817      0.8494067464
 O      1.4914827619     -1.2998516976     -0.7884063868
 H      1.4297376606     -1.2333656104     -1.7132747645
 H      2.4049639037     -1.2005120937     -0.4998508906
 O     -1.1676879226      1.5516411215      0.5956227015
 H     -1.9027901495      1.7331065846     -0.0081764318
 H     -0.6524578890      2.3238833582      0.7341075967
 O      4.2879408594     -1.8587774115      0.3170763648
 H      4.1298947184     -2.7934229045      0.3302731566
 H      5.1442692360     -1.7591194101     -0.1411405479
 O     -1.9822290637      0.8720343578     -3.5653574657
 H     -2.8165160116      0.4504450992     -3.4260288588
 H     -1.6920033753      0.7895675307     -4.4317762551
 O     -3.5129035329      2.4312088339     -0.5377620506
 H     -3.9826543136      2.6613490016      0.2326999848
 H     -3.2899301162      3.1949846950     -1.0561365262
 O      2.9707969931     -0.1024674571      2.1237034441
 H      3.6162531919     -0.6616424281      1.6586975031
 H      3.4002125455      0.1716857096      2.9434354652
 O     -4.0208243883     -0.3516389251     -1.5558302121
 H     -4.7471715791     -0.8991416395     -1.3918852383
 H     -4.2703073456      0.5083392170     -1.1642245448
 O      2.0770569299      2.1090407871     -2.5865078730
 H      1.6557489727      2.9484393105     -2.8060244252
 H      2.7015531770      1.9325477525     -3.2517685183
43
# ORCA AIMD Position Step 109, t=54.50 fs, E_Pot=-170989.86013391 kJ mol^-1, Unit is Angstrom
Zn     -0.0278032941     -0.0798068666      0.0525686408
 N      0.1496517297     -0.7273121354      1.9009956272
 C     -0.7385431876     -1.8844286750      1.9475604291
 C     -2.0403805049     -1.5007752995      1.2891209186
 N     -1.7214974318     -1.1559576467     -0.0924015125
 H      1.1387741322     -0.8629792943      2.1148448231
 H     -0.1575476819      0.0101130331      2.5275552054
 H     -0.1695108071     -2.6230073448      1.4026211496
 H     -0.8828151975     -2.2194621189      2.9202819454
 H     -2.4247834436     -0.5874740179      1.6945912308
 H     -2.7420947059     -2.2514716239      1.3057665986
 H     -1.5907579183     -2.0305814431     -0.6338814610
 H     -2.5213956500     -0.7384306325     -0.5450667475
 O     -0.0718421736      0.5455391902     -1.8597698748
 H     -0.8239626544      0.8348773398     -2.4109332552
 H      0.6871666724      1.0935458489     -2.1517059913
 O      1.5875984350      1.3607432442      0.2330384305
 H      2.1313907928      1.6742286982     -0.5602980114
 H      2.2824809863      1.0119439451      0.8454985148
 O      1.4934347349     -1.3006377424     -0.7877775103
 H      1.4378402547     -1.2224724175     -1.7134044263
 H      2.4023307419     -1.2031902432     -0.4963409956
 O     -1.1669856850      1.5513932737      0.5966358203
 H     -1.9035839366      1.7376399649     -0.0051265976
 H     -0.6507054739      2.3282632674      0.7315014454
 O      4.2899410582     -1.8566818981      0.3162579081
 H      4.1386680726     -2.7953203346      0.3382550748
 H      5.1540179253     -1.7684194399     -0.1241851774
 O     -1.9820074968      0.8749332466     -3.5654571572
 H     -2.8092178228      0.4506855050     -3.4357238864
 H     -1.6858835525      0.8000319056     -4.4425378367
 O     -3.5134467932      2.4289887839     -0.5364489801
 H     -3.9802979183      2.6665219579      0.2419789233
 H     -3.2913934072      3.1978573449     -1.0542069260
 O      2.9704448496     -0.1032811856      2.1252172219
 H      3.6157005303     -0.6573413309      1.6540138566
 H      3.3989571730      0.1733946658      2.9408439761
 O     -4.0226865106     -0.3515578148     -1.5552400413
 H     -4.7545109154     -0.9085951165     -1.4088845658
 H     -4.2686562253      0.5051787507     -1.1708034685
 O      2.0772397668      2.1061928805     -2.5890604523
 H      1.6555563945      2.9457700111     -2.8099918950
 H      2.7075267607      1.9272607963     -3.2622024212
43
# ORCA AIMD Position Step 110, t=55.00 fs, E_Pot=-170994.19429449 kJ mol^-1, Unit is Angstrom
Zn     -0.0278175321     -0.0795878772      0.0526023123
 N      0.1502304459     -0.7282633987      1.8998746288
 C     -0.7430368159     -1.8841760666      1.9511343431
 C     -2.0376306945     -1.5013746595      1.2894245075
 N     -1.7227256183     -1.1550527961     -0.0923009376
 H      1.1353267892     -0.8704945239      2.1079070471
 H     -0.1526855884     -0.0003440666      2.5200051504
 H     -0.1677667517     -2.6197590530      1.4030695962
 H     -0.8841425559     -2.2227420765      2.9248485241
 H     -2.4288316012     -0.5820940509      1.6947424558
 H     -2.7447868936     -2.2471394951      1.3020895691
 H     -1.5781699467     -2.0354617684     -0.6326575040
 H     -2.5243744347     -0.7277559364     -0.5449598410
 O     -0.0741291131      0.5461394842     -1.8612951984
 H     -0.8129810943      0.8325517889     -2.3995546543
 H      0.6891153661      1.1027197076     -2.1471051357
 O      1.5865551780      1.3607889743      0.2330756850
 H      2.1293214304      1.6747305541     -0.5703976399
 H      2.2778073781      1.0060073840      0.8412217558
 O      1.4952998799     -1.3014652225     -0.7868727886
 H      1.4461812912     -1.2114302786     -1.7174496670
 H      2.4007241365     -1.2058845737     -0.4928557864
 O     -1.1663238432      1.5509866653      0.5976685616
 H     -1.9050290796      1.7429085512     -0.0023759858
 H     -0.6480336621      2.3347634283      0.7289692465
 O      4.2920209764     -1.8545339694      0.3153825150
 H      4.1468024068     -2.7984278244      0.3465064086
 H      5.1626607150     -1.7772856446     -0.1067499478
 O     -1.9817319673      0.8779653334     -3.5653588093
 H     -2.8041869250      0.4494437282     -3.4451248787
 H     -1.6790275891      0.8097855959     -4.4569686062
 O     -3.5139020119      2.4266368948     -0.5352588676
 H     -3.9792123390      2.6729337558      0.2532172151
 H     -3.2930469855      3.2016209140     -1.0524747739
 O      2.9701395174     -0.1040967190      2.1267313389
 H      3.6147795583     -0.6531293226      1.6492568034
 H      3.3975241009      0.1751317286      2.9380998570
 O     -4.0244070095     -0.3513112880     -1.5546616304
 H     -4.7645876366     -0.9203659302     -1.4255039152
 H     -4.2664152469      0.5020977886     -1.1777256087
 O      2.0773051287      2.1034135972     -2.5914885198
 H      1.6555965918      2.9428976481     -2.8138094541
 H      2.7151635758      1.9214522982     -3.2743318598
43
# ORCA AIMD Position Step 111, t=55.50 fs, E_Pot=-170996.51710073 kJ mol^-1, Unit is Angstrom
Zn     -0.0278257231     -0.0793514104      0.0526180455
 N      0.1508312481     -0.7290971888      1.8986693320
 C     -0.7472565207     -1.8838107362      1.9545355796
 C     -2.0346324399     -1.5016736378      1.2895510577
 N     -1.7238265465     -1.1543299239     -0.0923913891
 H      1.1317098893     -0.8790514776      2.1014904717
 H     -0.1484373010     -0.0100902868      2.5136255784
 H     -0.1671032870     -2.6180321581      1.4027285844
 H     -0.8864518283     -2.2275072755      2.9338211340
 H     -2.4332077557     -0.5762775153      1.6965174566
 H     -2.7513202364     -2.2472278039      1.2995063875
 H     -1.5656892073     -2.0384894730     -0.6303000014
 H     -2.5278681581     -0.7166803926     -0.5452842335
 O     -0.0762423148      0.5467495215     -1.8627468222
 H     -0.8038085641      0.8303443963     -2.3893104398
 H      0.6905122940      1.1113737234     -2.1423609982
 O      1.5857381250      1.3608675631      0.2329561942
 H      2.1246035450      1.6740151917     -0.5774906406
 H      2.2719587277      1.0004863806      0.8366701698
 O      1.4970641064     -1.3023349280     -0.7857438699
 H      1.4548190331     -1.2002370860     -1.7246736449
 H      2.4004054256     -1.2085773351     -0.4892816520
 O     -1.1656827339      1.5504664795      0.5987230144
 H     -1.9070338061      1.7488383121      0.0001780038
 H     -0.6448107613      2.3427499177      0.7264280237
 O      4.2941700495     -1.8523673473      0.3144579959
 H      4.1543037236     -2.8022600412      0.3550749727
 H      5.1705098263     -1.7855969184     -0.0889646500
 O     -1.9813394192      0.8811396503     -3.5651834407
 H     -2.8017730217      0.4465215020     -3.4542596787
 H     -1.6720509608      0.8190433490     -4.4732210522
 O     -3.5143025103      2.4241958927     -0.5341401944
 H     -3.9787860674      2.6802433081      0.2654570340
 H     -3.2949853719      3.2058635188     -1.0507010973
 O      2.9698656951     -0.1049212095      2.1282296951
 H      3.6135300616     -0.6490100223      1.6444440342
 H      3.3960947475      0.1769829773      2.9354827473
 O     -4.0260426988     -0.3509939137     -1.5540993340
 H     -4.7763084085     -0.9334599711     -1.4419876862
 H     -4.2638979650      0.4995751053     -1.1847129672
 O      2.0773155925      2.1006772295     -2.5938662335
 H      1.6559067104      2.9397756282     -2.8174972420
 H      2.7234283783      1.9154112181     -3.2870915997
43
# ORCA AIMD Position Step 112, t=56.00 fs, E_Pot=-170995.84365434 kJ mol^-1, Unit is Angstrom
Zn     -0.0278282220     -0.0790989063      0.0526157437
 N      0.1514402395     -0.7298744918      1.8973412765
 C     -0.7511476698     -1.8833669682      1.9577718546
 C     -2.0314930010     -1.5016606096      1.2895152470
 N     -1.7248035297     -1.1537862459     -0.0926879238
 H      1.1283124179     -0.8886122967      2.0957276448
 H     -0.1451123717     -0.0181903735      2.5091633130
 H     -0.1676960353     -2.6177454726      1.4017795595
 H     -0.8896370292     -2.2334648872      2.9464886468
 H     -2.4376373872     -0.5705872386      1.6996627998
 H     -2.7611733890     -2.2512455067      1.2980415103
 H     -1.5536227098     -2.0393221780     -0.6267548931
 H     -2.5313885698     -0.7057234095     -0.5458208453
 O     -0.0780661177      0.5473482019     -1.8640616391
 H     -0.7978335300      0.8288037740     -2.3812215219
 H      0.6910691443      1.1192301558     -2.1374363086
 O      1.5851346890      1.3609877364      0.2326562231
 H      2.1172528724      1.6720268761     -0.5813418503
 H      2.2652628642      0.9953347171      0.8320438885
 O      1.4987069911     -1.3032361483     -0.7844728835
 H      1.4637518677     -1.1890382388     -1.7338894226
 H      2.4015029284     -1.2112447970     -0.4855799882
 O     -1.1650462913      1.5498905402      0.5997910906
 H     -1.9094417877      1.7552910726      0.0026576241
 H     -0.6415043580      2.3514082286      0.7238038475
 O      4.2963569090     -1.8502375636      0.3135013437
 H      4.1611295331     -2.8062170764      0.3639200340
 H      5.1778605807     -1.7931768884     -0.0711100504
 O     -1.9807943409      0.8844301969     -3.5650476565
 H     -2.8019557251      0.4419389974     -3.4631397099
 H     -1.6656211960      0.8279068129     -4.4893441501
 O     -3.5146794405      2.4217314226     -0.5330466946
 H     -3.9783927634      2.6880143080      0.2775806145
 H     -3.2972880284      3.2101206709     -1.0486579511
 O      2.9696098755     -0.1057548430      2.1296851532
 H      3.6120102772     -0.6450239966      1.6396287418
 H      3.3948600795      0.1790177145      2.9332818397
 O     -4.0276445692     -0.3507094126     -1.5535639840
 H     -4.7883614542     -0.9466651580     -1.4584024637
 H     -4.2614399447      0.4981044199     -1.1914454867
 O      2.0773322979      2.0979784021     -2.5962459168
 H      1.6565053398      2.9364168605     -2.8210578677
 H      2.7312598753      1.9094674292     -3.2993525886
43
# ORCA AIMD Position Step 113, t=56.50 fs, E_Pot=-170992.97677311 kJ mol^-1, Unit is Angstrom
Zn     -0.0278254935     -0.0788283037      0.0525952933
 N      0.1520503610     -0.7306588276      1.8958444815
 C     -0.7547173784     -1.8828832691      1.9609206159
 C     -2.0283030287     -1.5013549314      1.2893332337
 N     -1.7256772534     -1.1533995502     -0.0931989967
 H      1.1254242592     -0.8992501223      2.0906577935
 H     -0.1428912821     -0.0240036671      2.5071529596
 H     -0.1697195271     -2.6187730327      1.4004263021
 H     -0.8935822305     -2.2402850549      2.9619704810
 H     -2.4419170648     -0.5655022155      1.7039477097
 H     -2.7735892840     -2.2583752132      1.2976800651
 H     -1.5420699348     -2.0378183383     -0.6220258786
 H     -2.5345158220     -0.6952359372     -0.5463632398
 O     -0.0795305227      0.5479239569     -1.8652035579
 H     -0.7961291230      0.8283735360     -2.3760211389
 H      0.6905808832      1.1261784600     -2.1322622776
 O      1.5847097593      1.3611565259      0.2321599137
 H      2.1073505088      1.6687798427     -0.5820145344
 H      2.2580176312      0.9903934279      0.8275355962
 O      1.5002419114     -1.3041667768     -0.7831320130
 H      1.4730910596     -1.1778677363     -1.7438589836
 H      2.4039998233     -1.2139174283     -0.4817138592
 O     -1.1643913277      1.5493106988      0.6008775803
 H     -1.9120979109      1.7622015271      0.0052442084
 H     -0.6385386959      2.3600273242      0.7209942584
 O      4.2985795303     -1.8481696980      0.3125169373
 H      4.1673380577     -2.8097448485      0.3731042901
 H      5.1851272114     -1.7999743750     -0.0532088476
 O     -1.9800841882      0.8878467622     -3.5650469350
 H     -2.8043226261      0.4358675023     -3.4719328755
 H     -1.6602209300      0.8365577022     -4.5038724409
 O     -3.5150661173      2.4192728695     -0.5319198658
 H     -3.9774650350      2.6959201606      0.2887199111
 H     -3.3000508200      3.2140128805     -1.0461197215
 O      2.9693558027     -0.1066083952      2.1310942010
 H      3.6102647433     -0.6411572307      1.6347949801
 H      3.3939720246      0.1813183971      2.9317066562
 O     -4.0292822514     -0.3505496799     -1.5530608596
 H     -4.7996817732     -0.9590035368     -1.4749728549
 H     -4.2593164779      0.4980807866     -1.1977430287
 O      2.0774086637      2.0952743495     -2.5987033720
 H      1.6573995205      2.9328241586     -2.8245536914
 H      2.7378569895      1.9038266358     -3.3103125991
43
# ORCA AIMD Position Step 114, t=57.00 fs, E_Pot=-170989.61639330 kJ mol^-1, Unit is Angstrom
Zn     -0.0278180161     -0.0785400250      0.0525565170
 N      0.1526459582     -0.7314888600      1.8941642934
 C     -0.7579382057     -1.8824073354      1.9640386037
 C     -2.0251975955     -1.5007948002      1.2890216757
 N     -1.7264592543     -1.1531437847     -0.0939193598
 H      1.1232822004     -0.9109149544      2.0863655636
 H     -0.1418599318     -0.0271016233      2.5079323998
 H     -0.1733257196     -2.6209734311      1.3988989163
 H     -0.8981126307     -2.2475147179      2.9790855887
 H     -2.4458208798     -0.5615158089      1.7091118945
 H     -2.7875093990     -2.2675674340      1.2984090960
 H     -1.5312085490     -2.0340077643     -0.6162526728
 H     -2.5368512642     -0.6856407858     -0.5467275059
 O     -0.0805824572      0.5484666418     -1.8661426809
 H     -0.7993440012      0.8293236794     -2.3741760014
 H      0.6889058111      1.1320862427     -2.1268548070
 O      1.5844231735      1.3613759832      0.2314669824
 H      2.0952013650      1.6643978254     -0.5797618306
 H      2.2506244931      0.9855276360      0.8234222226
 O      1.5016763658     -1.3051130459     -0.7818015424
 H      1.4828336509     -1.1668988511     -1.7532735726
 H      2.4077188306     -1.2166144040     -0.4777341029
 O     -1.1637051008      1.5487812570      0.6019746211
 H     -1.9148118151      1.7694267679      0.0081017913
 H     -0.6363209975      2.3678754556      0.7179441347
 O      4.3008154140     -1.8462060907      0.3115181775
 H      4.1729135466     -2.8123027275      0.3825863546
 H      5.1926246886     -1.8058785106     -0.0354395538
 O     -1.9792291498      0.8913577941     -3.5652550105
 H     -2.8081590737      0.4286939869     -3.4807239129
 H     -1.6562670148      0.8450485677     -4.5155283248
 O     -3.5154865325      2.4168687381     -0.5307194587
 H     -3.9755505875      2.7035888026      0.2980503023
 H     -3.3033223762      3.2171770711     -1.0429351220
 O      2.9690919231     -0.1074825589      2.1324433641
 H      3.6083566411     -0.6374338248      1.6299746000
 H      3.3935576153      0.1839211119      2.9309114964
 O     -4.0309996120     -0.3505909890     -1.5526006445
 H     -4.8092774300     -0.9695135218     -1.4916843797
 H     -4.2577776474      0.4997724635     -1.2034316204
 O      2.0775870309      2.0925515260     -2.6012774026
 H      1.6585722875      2.9290681738     -2.8280178549
 H      2.7425370160      1.8986983346     -3.3192485389
43
# ORCA AIMD Position Step 115, t=57.50 fs, E_Pot=-170987.11858783 kJ mol^-1, Unit is Angstrom
Zn     -0.0278062214     -0.0782314386      0.0524987606
 N      0.1532150135     -0.7323896084      1.8922917368
 C     -0.7608203900     -1.8819817520      1.9672161579
 C     -2.0222791074     -1.5000207714      1.2885938808
 N     -1.7271684023     -1.1529819733     -0.0948399212
 H      1.1219847724     -0.9236421755      2.0828746829
 H     -0.1419343008     -0.0274548130      2.5115373869
 H     -0.1786747141     -2.6242218739      1.3974147170
 H     -0.9030928482     -2.2547603799      2.9967977558
 H     -2.4491948128     -0.5590091637      1.7149611885
 H     -2.8019670112     -2.2778323084      1.3002085237
 H     -1.5210538321     -2.0280620918     -0.6096143567
 H     -2.5381019593     -0.6772048397     -0.5467756650
 O     -0.0812266948      0.5489835154     -1.8668858279
 H     -0.8074836405      0.8316714085     -2.3756729433
 H      0.6859532189      1.1369433797     -2.1212079105
 O      1.5842222896      1.3616454380      0.2305852584
 H      2.0811396369      1.6590523960     -0.5750597926
 H      2.2434130041      0.9805393933      0.8199503461
 O      1.5030423159     -1.3060697513     -0.7805358040
 H      1.4930473550     -1.1561997248     -1.7610742313
 H      2.4123948008     -1.2193950824     -0.4736914387
 O     -1.1629728175      1.5483441115      0.6030842662
 H     -1.9174282626      1.7768890324      0.0114160778
 H     -0.6351499303      2.3744184507      0.7145942512
 O      4.3030693971     -1.8443618406      0.3105064670
 H      4.1778887060     -2.8134715015      0.3924113802
 H      5.2006811326     -1.8108569137     -0.0177603055
 O     -1.9782603377      0.8949629690     -3.5657256072
 H     -2.8126158719      0.4208394568     -3.4896701096
 H     -1.6540038355      0.8534903237     -4.5235069844
 O     -3.5159627875      2.4145348624     -0.5294015845
 H     -3.9723071282      2.7107706812      0.3050499972
 H     -3.3071543658      3.2193661633     -1.0389907929
 O      2.9688070083     -0.1083848980      2.1337390844
 H      3.6063311619     -0.6338373625      1.6251514965
 H      3.3936899687      0.1868542681      2.9309428528
 O     -4.0328468415     -0.3508852383     -1.5521870230
 H     -4.8164987098     -0.9775357487     -1.5086359397
 H     -4.2569895142      0.5032669136     -1.2084899901
 O      2.0778997225      2.0897710500     -2.6040196388
 H      1.6600033268      2.9252089176     -2.8315217025
 H      2.7448774113      1.8941762592     -3.3257484654
43
# ORCA AIMD Position Step 116, t=58.00 fs, E_Pot=-170985.85448323 kJ mol^-1, Unit is Angstrom
Zn     -0.0277905404     -0.0779006416      0.0524212521
 N      0.1537417855     -0.7333614785      1.8902458246
 C     -0.7633638465     -1.8816475147      1.9705270802
 C     -2.0196531827     -1.4990739842      1.2880629634
 N     -1.7278185605     -1.1528714025     -0.0959395851
 H      1.1215148902     -0.9373945362      2.0802130379
 H     -0.1428842715     -0.0253688687      2.5177075480
 H     -0.1858921998     -2.6283991991      1.3961885049
 H     -0.9083818191     -2.2616233875      3.0140848379
 H     -2.4519013029     -0.5583032851      1.7213100378
 H     -2.8160084962     -2.2882308731      1.3030489200
 H     -1.5116105024     -2.0203261760     -0.6023984798
 H     -2.5380520081     -0.6701716174     -0.5464155539
 O     -0.0815077957      0.5494913044     -1.8674610346
 H     -0.8199162723      0.8351804019     -2.3800739909
 H      0.6816964034      1.1407733566     -2.1153647106
 O      1.5840484597      1.3619572932      0.2295420078
 H      2.0656849621      1.6530192683     -0.5686385711
 H      2.2367108860      0.9752542803      0.8173664037
 O      1.5043733286     -1.3070284922     -0.7793789931
 H      1.5037427285     -1.1458724309     -1.7663738007
 H      2.4176676128     -1.2223185940     -0.4696766310
 O     -1.1621869311      1.5480349260      0.6042040158
 H     -1.9198038298      1.7844808644      0.0153464860
 H     -0.6352372555      2.3792288058      0.7109235815
 O      4.3053450418     -1.8426514670      0.3094841281
 H      4.1822605787     -2.8129320391      0.4025886929
 H      5.2095041987     -1.8148651320     -0.0001467562
 O     -1.9772220610      0.8986491392     -3.5664945333
 H     -2.8167920632      0.4127840162     -3.4988626371
 H     -1.6535725352      0.8619434541     -4.5272715810
 O     -3.5165098140      2.4122865706     -0.5279346138
 H     -3.9675203398      2.7172413376      0.3093651345
 H     -3.3115584351      3.2204112221     -1.0342582822
 O      2.9684941264     -0.1093176500      2.1349890550
 H      3.6042405649     -0.6303619621      1.6203282978
 H      3.3943930178      0.1900987949      2.9317473042
 O     -4.0348580321     -0.3514594080     -1.5518220405
 H     -4.8208842862     -0.9825552412     -1.5258265734
 H     -4.2570543944      0.5084369172     -1.2129717023
 O      2.0783677944      2.0869064838     -2.6069607437
 H      1.6616592988      2.9213382933     -2.8351240717
 H      2.7446268951      1.8903141036     -3.3295628719
43
# ORCA AIMD Position Step 117, t=58.50 fs, E_Pot=-170985.44458314 kJ mol^-1, Unit is Angstrom
Zn     -0.0277715482     -0.0775489989      0.0523239180
 N      0.1542059766     -0.7343775909      1.8880865073
 C     -0.7655460081     -1.8814431547      1.9740005732
 C     -2.0174373376     -1.4980018961      1.2874473266
 N     -1.7284146369     -1.1527640800     -0.0971753291
 H      1.1217321444     -0.9519502570      2.0784175822
 H     -0.1443431638     -0.0214672120      2.5258571325
 H     -0.1949875036     -2.6333563294      1.3954305766
 H     -0.9137984282     -2.2676761406      3.0298771468
 H     -2.4538147311     -0.5596305534      1.7279330590
 H     -2.8286568327     -2.2978516450      1.3068554623
 H     -1.5029224444     -2.0113926704     -0.5950554687
 H     -2.5365867465     -0.6647825178     -0.5456124168
 O     -0.0815030040      0.5500083209     -1.8679080705
 H     -0.8353981288      0.8393892859     -2.3865742538
 H      0.6762250314      1.1436273527     -2.1094556807
 O      1.5838393843      1.3622925738      0.2283967526
 H      2.0496724033      1.6467330195     -0.5615734179
 H      2.2308498450      0.9695838238      0.8158885384
 O      1.5056934169     -1.3079720502     -0.7783713120
 H      1.5147978461     -1.1361072554     -1.7684750997
 H      2.4230778144     -1.2254183473     -0.4658305934
 O     -1.1613530105      1.5478825174      0.6053196555
 H     -1.9218053456      1.7920134969      0.0199821408
 H     -0.6366814451      2.3819898873      0.7069787163
 O      4.3076302848     -1.8410978738      0.3084615655
 H      4.1859696153     -2.8105078491      0.4130235500
 H      5.2190910866     -1.8178296113      0.0172818145
 O     -1.9761732720      0.9023671671     -3.5675721883
 H     -2.8198074406      0.4050720030     -3.5082509072
 H     -1.6549945155      0.8703679409     -4.5265685488
 O     -3.5171310679      2.4101519947     -0.5263109366
 H     -3.9611540890      2.7227709525      0.3108207774
 H     -3.3164667632      3.2202382314     -1.0288426429
 O      2.9681531408     -0.1102711854      2.1361940298
 H      3.6021561666     -0.6270322075      1.6155608881
 H      3.3956305256      0.1935632143      2.9331597371
 O     -4.0370356073     -0.3523085921     -1.5515074981
 H     -4.8221685998     -0.9842052050     -1.5430528210
 H     -4.2580024710      0.5148901151     -1.2169745312
 O      2.0789956420      2.0839649250     -2.6100881129
 H      1.6634833317      2.9175966655     -2.8388422412
 H      2.7417403851      1.8871418743     -3.3306138006
43
# ORCA AIMD Position Step 118, t=59.00 fs, E_Pot=-170985.33470294 kJ mol^-1, Unit is Angstrom
Zn     -0.0277497783     -0.0771772766      0.0522066842
 N      0.1545928658     -0.7354035637      1.8858833379
 C     -0.7673585454     -1.8813974712      1.9776582583
 C     -2.0157198427     -1.4968469154      1.2867650552
 N     -1.7289606733     -1.1526075702     -0.0984956930
 H      1.1223777835     -0.9670673294      2.0774898153
 H     -0.1458691552     -0.0165661372      2.5352270664
 H     -0.2059153181     -2.6389638124      1.3953167332
 H     -0.9191905760     -2.2725714219      3.0433284106
 H     -2.4548682912     -0.5630914996      1.7346463505
 H     -2.8391375984     -2.3059775748      1.3115319662
 H     -1.4949466220     -2.0019922019     -0.5880911474
 H     -2.5337157814     -0.6611625299     -0.5443930056
 O     -0.0813123074      0.5505536829     -1.8682753075
 H     -0.8524539724      0.8437559951     -2.3942282153
 H      0.6697139491      1.1456485983     -2.1036244228
 O      1.5835314518      1.3626241483      0.2272293491
 H      2.0340344468      1.6406960404     -0.5551764328
 H      2.2260372446      0.9634886069      0.8156254643
 O      1.5070304648     -1.3088874451     -0.7775330519
 H      1.5260927288     -1.1270378728     -1.7669897611
 H      2.4281790605     -1.2287315846     -0.4622744962
 O     -1.1604802309      1.5479019992      0.6064199074
 H     -1.9233547901      1.7993171457      0.0253740618
 H     -0.6394462051      2.3825942317      0.7028297442
 O      4.3099263335     -1.8397085147      0.3074440381
 H      4.1889631236     -2.8061909147      0.4236466044
 H      5.2293188110     -1.8197094105      0.0344860337
 O     -1.9751695408      0.9060801045     -3.5689493340
 H     -2.8209492405      0.3981592368     -3.5177540287
 H     -1.6581445193      0.8787350786     -4.5215281305
 O     -3.5178245543      2.4081419372     -0.5245309187
 H     -3.9533073953      2.7272247877      0.3095154557
 H     -3.3217822524      3.2188996074     -1.0229320259
 O      2.9677867497     -0.1112359211      2.1373626326
 H      3.6001386997     -0.6238584318      1.6108978316
 H      3.3973182092      0.1971290664      2.9349271721
 O     -4.0393725609     -0.3534026256     -1.5512402010
 H     -4.8203764779     -0.9823755832     -1.5601406362
 H     -4.2597943956      0.5220676568     -1.2206773890
 O      2.0797741471      2.0809531501     -2.6133800617
 H      1.6654062216      2.9141097270     -2.8426890777
 H      2.7364120932      1.8846063571     -3.3290821397
43
# ORCA AIMD Position Step 119, t=59.50 fs, E_Pot=-170985.10524982 kJ mol^-1, Unit is Angstrom
Zn     -0.0277255366     -0.0767833382      0.0520686503
 N      0.1548969928     -0.7364122922      1.8836934862
 C     -0.7688148405     -1.8815297555      1.9815359897
 C     -2.0145525073     -1.4956393026      1.2860289866
 N     -1.7294613392     -1.1523481461     -0.0998523022
 H      1.1231195760     -0.9825857131      2.0773997557
 H     -0.1470194331     -0.0114991361      2.5450701666
 H     -0.2186536363     -2.6451563155      1.3959849985
 H     -0.9244695587     -2.2760691028      3.0538947376
 H     -2.4550562111     -0.5686868991      1.7413535790
 H     -2.8469353871     -2.3121293702      1.3169986951
 H     -1.4875233988     -1.9928731429     -0.5819919357
 H     -2.5295458402     -0.6593103930     -0.5428358484
 O     -0.0810391413      0.5511450575     -1.8686104515
 H     -0.8697639862      0.8477822606     -2.4021800784
 H      0.6623794380      1.1470722215     -2.0979909135
 O      1.5830638757      1.3629211202      0.2261259740
 H      2.0196262722      1.6353871968     -0.5508312733
 H      2.2223149912      0.9569571385      0.8165618865
 O      1.5084205962     -1.3097718205     -0.7768618330
 H      1.5375840137     -1.1186863716     -1.7618062388
 H      2.4326122905     -1.2323162033     -0.4590743751
 O     -1.1595756142      1.5480956274      0.6075032175
 H     -1.9244417560      1.8062873426      0.0315675799
 H     -0.6433871971      2.3811360658      0.6985410508
 O      4.3122603229     -1.8384688257      0.3064255723
 H      4.1912082145     -2.8001014854      0.4344831415
 H      5.2400165478     -1.8204960765      0.0516010192
 O     -1.9742542565      0.9097863969     -3.5706064455
 H     -2.8197170683      0.3923431996     -3.5273221130
 H     -1.6627831917      0.8870803171     -4.5126107139
 O     -3.5185874778      2.4062391949     -0.5225919392
 H     -3.9441512078      2.7305889187      0.3057910582
 H     -3.3274178339      3.2165508856     -1.0167510057
 O      2.9673973276     -0.1122088426      2.1385155727
 H      3.5982248157     -0.6208203422      1.6063541083
 H      3.3993534622      0.2006860612      2.9367574465
 O     -4.0418657626     -0.3546990418     -1.5510118076
 H     -4.8157926419     -0.9771815791     -1.5770607922
 H     -4.2623578743      0.5293726956     -1.2243242785
 O      2.0806856689      2.0778607036     -2.6168258859
 H      1.6673761851      2.9109551176     -2.8466933102
 H      2.7290274338      1.8825599096     -3.3253822868
43
# ORCA AIMD Position Step 120, t=60.00 fs, E_Pot=-170984.54074052 kJ mol^-1, Unit is Angstrom
Zn     -0.0276994693     -0.0763719586      0.0519114068
 N      0.1551141903     -0.7373646926      1.8816103230
 C     -0.7699092195     -1.8818481964      1.9855878591
 C     -2.0139864943     -1.4944286822      1.2852644454
 N     -1.7299070514     -1.1519422607     -0.1011698126
 H      1.1235774059     -0.9980494603      2.0781002226
 H     -0.1473689266     -0.0071338753      2.5545037416
 H     -0.2329001996     -2.6517846695      1.3975219014
 H     -0.9294756126     -2.2779336879      3.0610378912
 H     -2.4544216366     -0.5761959053      1.7478796894
 H     -2.8515619516     -2.3158795634      1.3230646682
 H     -1.4805931090     -1.9849498577     -0.5773375021
 H     -2.5243716581     -0.6591645818     -0.5411053002
 O     -0.0807856026      0.5517804476     -1.8689455533
 H     -0.8858870452      0.8509750202     -2.4095687811
 H      0.6546471043      1.1481764909     -2.0927921205
 O      1.5823968790      1.3631452227      0.2251940326
 H      2.0074744178      1.6313296692     -0.5499025843
 H      2.2196676685      0.9501732353      0.8185421805
 O      1.5098706572     -1.3106103212     -0.7763521194
 H      1.5490226300     -1.1111751575     -1.7531843955
 H      2.4360206562     -1.2361597691     -0.4563141020
 O     -1.1586662518      1.5484494478      0.6085503385
 H     -1.9250940115      1.8127084041      0.0384514325
 H     -0.6481676221      2.3779263654      0.6942748392
 O      4.3146241133     -1.8373759801      0.3054160313
 H      4.1926287732     -2.7926148694      0.4453845048
 H      5.2507312724     -1.8201820696      0.0684763065
 O     -1.9734816030      0.9134262738     -3.5724727061
 H     -2.8158529383      0.3879040254     -3.5367045226
 H     -1.6684509551      0.8952954928     -4.5008142883
 O     -3.5193975880      2.4044486968     -0.5205367699
 H     -3.9341403731      2.7328805793      0.3002982808
 H     -3.3331629459      3.2134837501     -1.0106996549
 O      2.9669955474     -0.1131697285      2.1396537781
 H      3.5964754775     -0.6179460294      1.6020271542
 H      3.4015855574      0.2040560659      2.9383121760
 O     -4.0444521634     -0.3561167826     -1.5508160439
 H     -4.8090599764     -0.9690720596     -1.5935124636
 H     -4.2655505254      0.5360691416     -1.2280972265
 O      2.0816817188      2.0747384963     -2.6203396506
 H      1.6693165543      2.9082355854     -2.8507956812
 H      2.7203285917      1.8808170307     -3.3202355754
43
# ORCA AIMD Position Step 121, t=60.50 fs, E_Pot=-170983.45643139 kJ mol^-1, Unit is Angstrom
Zn     -0.0276718185     -0.0759429001      0.0517349530
 N      0.1552508143     -0.7382448748      1.8796903040
 C     -0.7706636371     -1.8823528418      1.9898044976
 C     -2.0140332693     -1.4932481212      1.2844862646
 N     -1.7302876255     -1.1513570420     -0.1023930958
 H      1.1233937342     -1.0131988237      2.0795231956
 H     -0.1465873361     -0.0041366606      2.5628819173
 H     -0.2484577392     -2.6588040262      1.3999744235
 H     -0.9341427777     -2.2780527678      3.0645717344
 H     -2.4530671119     -0.5853373368      1.7541818098
 H     -2.8528086439     -2.3170467384      1.3295951746
 H     -1.4739996714     -1.9789020211     -0.5745377140
 H     -2.5185454304     -0.6605411527     -0.5394002668
 O     -0.0806378156      0.5524559127     -1.8693055358
 H     -0.8998711976      0.8530026103     -2.4158152179
 H      0.6469090699      1.1493082130     -2.0881965364
 O      1.5815075214      1.3632676688      0.2245070971
 H      1.9981547434      1.6288131137     -0.5532781285
 H      2.2179246523      0.9433088357      0.8213072429
 O      1.5113982644     -1.3114040950     -0.7759740769
 H      1.5603145270     -1.1044565625     -1.7416200272
 H      2.4382167091     -1.2402860079     -0.4539863093
 O     -1.1577708740      1.5489387498      0.6095580473
 H     -1.9254114961      1.8184748543      0.0459459716
 H     -0.6533870603      2.3734470354      0.6901541206
 O      4.3170425184     -1.8364013325      0.3044109852
 H      4.1931822472     -2.7841610776      0.4563623582
 H      5.2611026541     -1.8187940012      0.0851804765
 O     -1.9728870754      0.9169959925     -3.5744744616
 H     -2.8093297301      0.3849044939     -3.5457579988
 H     -1.6746049460      0.9033919512     -4.4874242220
 O     -3.5202366060      2.4027401707     -0.5183951688
 H     -3.9237202918      2.7342610969      0.2938724803
 H     -3.3388674772      3.2100291299     -1.0051387485
 O      2.9665874404     -0.1141119326      2.1407915298
 H      3.5949148544     -0.6152186990      1.5979554589
 H      3.4038951372      0.2071187791      2.9393034512
 O     -4.0470832800     -0.3575797028     -1.5506419622
 H     -4.8010570085     -0.9586935115     -1.6094655791
 H     -4.2692521580      0.5415856407     -1.2321981176
 O      2.0827113419      2.0716042603     -2.6238665452
 H      1.6711919136      2.9059707566     -2.8549706010
 H      2.7111741838      1.8790961926     -3.3145452883
43
# ORCA AIMD Position Step 122, t=61.00 fs, E_Pot=-170981.48203410 kJ mol^-1, Unit is Angstrom
Zn     -0.0276423198     -0.0754897008      0.0515367211
 N      0.1553191162     -0.7390599678      1.8779531371
 C     -0.7711141137     -1.8830439382      1.9942255137
 C     -2.0146898886     -1.4921139443      1.2836964089
 N     -1.7305883848     -1.1505699223     -0.1034911669
 H      1.1222517409     -1.0279959335      2.0816159391
 H     -0.1444156207     -0.0029754210      2.5698117915
 H     -0.2653153013     -2.6662980451      1.4033883227
 H     -0.9384937507     -2.2763692759      3.0645254542
 H     -2.4511200510     -0.5958561365      1.7603514618
 H     -2.8506090917     -2.3155880294      1.3365439820
 H     -1.4675382194     -1.9751187013     -0.5738332969
 H     -2.5124232455     -0.6632108794     -0.5379416395
 O     -0.0806660028      0.5531701331     -1.8697104544
 H     -0.9112044594      0.8536556299     -2.4205864783
 H      0.6394701723      1.1508516957     -2.0843068953
 O      1.5803857615      1.3632722158      0.2240943095
 H      1.9917592709      1.6278636419     -0.5612713550
 H      2.2168296140      0.9364890760      0.8245639494
 O      1.5130351431     -1.3121699525     -0.7756791435
 H      1.5715396038     -1.0983282014     -1.7277039575
 H      2.4391527489     -1.2447705316     -0.4520023079
 O     -1.1568979743      1.5495360188      0.6105390685
 H     -1.9255455459      1.8235791720      0.0540443021
 H     -0.6586337105      2.3682582860      0.6862532148
 O      4.3195752420     -1.8354965264      0.3033912299
 H      4.1928296778     -2.7751338887      0.4676074582
 H      5.2709121198     -1.8163476050      0.1020043956
 O     -1.9724921261      0.9205495332     -3.5765459593
 H     -2.8002353682      0.3832365183     -3.5544565570
 H     -1.6806772711      0.9115093595     -4.4738808210
 O     -3.5210936604      2.4010526745     -0.5161764394
 H     -3.9132615533      2.7349915205      0.2874306361
 H     -3.3444632073      3.2064922248     -1.0003653586
 O      2.9661725609     -0.1150436698      2.1419558742
 H      3.5935354400     -0.6125807181      1.5941197271
 H      3.4062176668      0.2098181640      2.9395081900
 O     -4.0497311196     -0.3590256559     -1.5504747064
 H     -4.7928096629     -0.9467640688     -1.6251802530
 H     -4.2734045261      0.5455399068     -1.2368466578
 O      2.0837277318      2.0684369429     -2.6273919738
 H      1.6730164278      2.9041088853     -2.8592369970
 H      2.7024403270      1.8770398058     -3.3092974927
43
# ORCA AIMD Position Step 123, t=61.50 fs, E_Pot=-170978.87946813 kJ mol^-1, Unit is Angstrom
Zn     -0.0276119013     -0.0750256993      0.0513228002
 N      0.1553306903     -0.7397916266      1.8764840485
 C     -0.7712795695     -1.8838846157      1.9986852955
 C     -2.0159101860     -1.4910920192      1.2829293002
 N     -1.7307708715     -1.1496156728     -0.1043956422
 H      1.1199559393     -1.0417720882      2.0842323041
 H     -0.1407764492     -0.0040044471      2.5747443775
 H     -0.2826934184     -2.6740466372      1.4076255523
 H     -0.9423846593     -2.2729549869      3.0610992494
 H     -2.4488328241     -0.6069408748      1.7662536274
 H     -2.8451154148     -2.3116430394      1.3435577524
 H     -1.4613654870     -1.9738729065     -0.5753221355
 H     -2.5066934830     -0.6667806614     -0.5370475506
 O     -0.0809242743      0.5538867036     -1.8701551087
 H     -0.9190808244      0.8527759854     -2.4234784323
 H      0.6329392386      1.1531070454     -2.0813844516
 O      1.5790956637      1.3631560160      0.2239603866
 H      1.9882831733      1.6283017863     -0.5731360630
 H      2.2161497701      0.9301652780      0.8278392804
 O      1.5147328449     -1.3128957375     -0.7754192030
 H      1.5823063321     -1.0927919361     -1.7128834051
 H      2.4388509323     -1.2494858131     -0.4503126281
 O     -1.1560953485      1.5501805809      0.6114647600
 H     -1.9256792134      1.8278082882      0.0623578958
 H     -0.6632131714      2.3632444548      0.6828183632
 O      4.3221686856     -1.8346499178      0.3023823048
 H      4.1915495086     -2.7663615717      0.4788369123
 H      5.2795413188     -1.8129756020      0.1184807243
 O     -1.9723276613      0.9239917864     -3.5785164212
 H     -2.7892557100      0.3827342704     -3.5623926809
 H     -1.6857644601      0.9194527632     -4.4624413013
 O     -3.5219175587      2.3993972074     -0.5139945409
 H     -3.9036238223      2.7353588068      0.2822677042
 H     -3.3496505392      3.2033107496     -0.9968658857
 O      2.9657672778     -0.1159341963      2.1431182509
 H      3.5923815210     -0.6100897664      1.5906677576
 H      3.4084189911      0.2120092011      2.9387661579
 O     -4.0522375633     -0.3603272789     -1.5503050766
 H     -4.7859108173     -0.9346944101     -1.6403040167
 H     -4.2777855332      0.5475179070     -1.2420067933
 O      2.0846349813      2.0653578364     -2.6307435124
 H      1.6747452434      2.9026428758     -2.8634162591
 H      2.6954312125      1.8743616303     -3.3057635628
43
# ORCA AIMD Position Step 124, t=62.00 fs, E_Pot=-170976.86197587 kJ mol^-1, Unit is Angstrom
Zn     -0.0275798637     -0.0745405901      0.0510887919
 N      0.1553006851     -0.7404721358      1.8752697936
 C     -0.7711999553     -1.8848691970      2.0032359228
 C     -2.0176753404     -1.4901885727      1.2821761904
 N     -1.7308020411     -1.1485087363     -0.1051063017
 H      1.1163314167     -1.0546439869      2.0873439566
 H     -0.1355497948     -0.0073736764      2.5776238822
 H     -0.3006737681     -2.6822403874      1.4127053548
 H     -0.9459191911     -2.2678311896      3.0546253190
 H     -2.4463814390     -0.6182602639      1.7721084183
 H     -2.8364504806     -2.3053664477      1.3506461694
 H     -1.4554039195     -1.9749633620     -0.5789031976
 H     -2.5017511260     -0.6709918963     -0.5369765866
 O     -0.0814541327      0.5546063774     -1.8706506181
 H     -0.9234194905      0.8502918529     -2.4244224536
 H      0.6274723505      1.1563969676     -2.0794724198
 O      1.5776586942      1.3629270241      0.2240547818
 H      1.9871308167      1.6297222726     -0.5880035043
 H      2.2156101891      0.9244392288      0.8308336082
 O      1.5165199398     -1.3136126075     -0.7751221882
 H      1.5928265081     -1.0874794797     -1.6980610764
 H      2.4374714418     -1.2545347246     -0.4487256846
 O     -1.1553648808      1.5508415245      0.6123582540
 H     -1.9260244867      1.8312227774      0.0709066764
 H     -0.6666981211      2.3590334473      0.6798873252
 O      4.3248962619     -1.8338050036      0.3013579130
 H      4.1893002918     -2.7581788963      0.4903590537
 H      5.2869313495     -1.8086821737      0.1349867000
 O     -1.9723943994      0.9274164721     -3.5803232493
 H     -2.7767587628      0.3830330481     -3.5696132773
 H     -1.6892937028      0.9274683151     -4.4546469427
 O     -3.5227017828      2.3977020137     -0.5118500715
 H     -3.8950948183      2.7356935175      0.2793146590
 H     -3.3544440226      3.2006678513     -0.9948325815
 O      2.9653646481     -0.1168027380      2.1443051685
 H      3.5914218818     -0.6076688089      1.5875487720
 H      3.4105236895      0.2137168171      2.9370020432
 O     -4.0545753362     -0.3614380164     -1.5501141516
 H     -4.7815903451     -0.9233153661     -1.6553630931
 H     -4.2824170664      0.5474490706     -1.2478318947
 O      2.0853949402      2.0623247254     -2.6339371708
 H      1.6764497330      2.9014438291     -2.8675455898
 H      2.6908913612      1.8706997464     -3.3048332978
43
# ORCA AIMD Position Step 125, t=62.50 fs, E_Pot=-170977.28094373 kJ mol^-1, Unit is Angstrom
Zn     -0.0275462217     -0.0740360407      0.0508358006
 N      0.1552436609     -0.7411236822      1.8743231620
 C     -0.7709108716     -1.8859640075      2.0078010525
 C     -2.0199218502     -1.4894309321      1.2814457457
 N     -1.7306393720     -1.1473056825     -0.1056136586
 H      1.1113678452     -1.0664118456      2.0908611320
 H     -0.1287949331     -0.0130363966      2.5784255177
 H     -0.3188783044     -2.6908819588      1.4185141082
 H     -0.9491328660     -2.2611693840      3.0457133444
 H     -2.4440171288     -0.6291504873      1.7780124135
 H     -2.8250134490     -2.2971469771      1.3576437743
 H     -1.4498282721     -1.9779474398     -0.5842674094
 H     -2.4981073616     -0.6755139342     -0.5379915609
 O     -0.0822721604      0.5553148215     -1.8711933085
 H     -0.9240912842      0.8462150608     -2.4233657608
 H      0.6232707883      1.1608784798     -2.0786490255
 O      1.5761371019      1.3626037163      0.2243071683
 H      1.9876399319      1.6316073344     -0.6043675335
 H      2.2149871509      0.9195553296      0.8331961351
 O      1.5183732027     -1.3143359023     -0.7747191351
 H      1.6030629112     -1.0821224728     -1.6846159290
 H      2.4352739401     -1.2598953344     -0.4470570941
 O     -1.1547247599      1.5514756113      0.6132203001
 H     -1.9267955151      1.8337931666      0.0794936577
 H     -0.6686080367      2.3562963838      0.6775645287
 O      4.3277576654     -1.8329325826      0.3003194945
 H      4.1860919620     -2.7510524222      0.5021883630
 H      5.2928866472     -1.8035673762      0.1514521238
 O     -1.9726795336      0.9308342006     -3.5818764004
 H     -2.7635452206      0.3836665739     -3.5759837521
 H     -1.6907008562      0.9356109581     -4.4519520872
 O     -3.5234231501      2.3959488290     -0.5097931719
 H     -3.8880974014      2.7362653933      0.2794309996
 H     -3.3587640894      3.1987116830     -0.9944525216
 O      2.9649659647     -0.1176477920      2.1455078042
 H      3.5906490656     -0.6053083944      1.5847943042
 H      3.4125424235      0.2149480710      2.9342495140
 O     -4.0566615179     -0.3622973265     -1.5498883621
 H     -4.7810814475     -0.9136269815     -1.6705352023
 H     -4.2872392818      0.5453818270     -1.2542839121
 O      2.0859641233      2.0593701937     -2.6369222575
 H      1.6781745745      2.9004003030     -2.8715565849
 H      2.6894368350      1.8658595928     -3.3071586974
43
# ORCA AIMD Position Step 126, t=63.00 fs, E_Pot=-170981.24279386 kJ mol^-1, Unit is Angstrom
Zn     -0.0275107227     -0.0735104558      0.0505633585
 N      0.1551732031     -0.7417816672      1.8736357746
 C     -0.7704465564     -1.8871357955      2.0123205999
 C     -2.0225841887     -1.4888302739      1.2807395705
 N     -1.7302421800     -1.1460647869     -0.1059265482
 H      1.1051433555     -1.0770113125      2.0947225188
 H     -0.1206215516     -0.0207937464      2.5773099975
 H     -0.3370484325     -2.7000326959      1.4249562817
 H     -0.9521233487     -2.2531751871      3.0351366631
 H     -2.4419736422     -0.6390146169      1.7841146055
 H     -2.8113012854     -2.2874829286      1.3644442420
 H     -1.4448411837     -1.9821942097     -0.5910018086
 H     -2.4961476221     -0.6801020131     -0.5403006987
 O     -0.0833783854      0.5560080831     -1.8717803504
 H     -0.9211528312      0.8406000988     -2.4203519625
 H      0.6203448379      1.1665933080     -2.0789292232
 O      1.5745816945      1.3622059531      0.2246396461
 H      1.9891162782      1.6334395581     -0.6207565073
 H      2.2140995543      0.9156806855      0.8346538410
 O      1.5202751741     -1.3150865566     -0.7741445700
 H      1.6130735284     -1.0764047466     -1.6737620523
 H      2.4325826588     -1.2655787186     -0.4450871493
 O     -1.1541806525      1.5520549709      0.6140591560
 H     -1.9281956196      1.8355322512      0.0879895797
 H     -0.6686186279      2.3554853772      0.6759022564
 O      4.3307628322     -1.8320069200      0.2992640164
 H      4.1819498131     -2.7452365506      0.5143973690
 H      5.2973641131     -1.7977118246      0.1679007222
 O     -1.9731479907      0.9342841080     -3.5831436409
 H     -2.7504316261      0.3840807578     -3.5814534916
 H     -1.6897111950      0.9439899443     -4.4550153751
 O     -3.5240722923      2.3941241031     -0.5078440804
 H     -3.8828145787      2.7372319584      0.2830923532
 H     -3.3626100603      3.1974291183     -0.9957774373
 O      2.9645674449     -0.1184760152      2.1467204737
 H      3.5900443863     -0.6029867551      1.5824054538
 H      3.4145426067      0.2157608507      2.9306188762
 O     -4.0584550303     -0.3628850290     -1.5496174300
 H     -4.7851427159     -0.9062056750     -1.6860848716
 H     -4.2922589053      0.5415388196     -1.2613069135
 O      2.0863317004      2.0564974484     -2.6396994539
 H      1.6799894538      2.8993833814     -2.8754171545
 H      2.6911989980      1.8597704428     -3.3128968143
43
# ORCA AIMD Position Step 127, t=63.50 fs, E_Pot=-170987.69118273 kJ mol^-1, Unit is Angstrom
Zn     -0.0274731901     -0.0729638747      0.0502718184
 N      0.1551019561     -0.7424877106      1.8731885197
 C     -0.7698399646     -1.8883425537      2.0167054222
 C     -2.0255765561     -1.4883845348      1.2800604743
 N     -1.7295790901     -1.1448473949     -0.1060640916
 H      1.0978655799     -1.0863954510      2.0988648347
 H     -0.1112441977     -0.0302522747      2.5746070195
 H     -0.3548770607     -2.7097189741      1.4319113404
 H     -0.9550200963     -2.2441437546      3.0239023357
 H     -2.4404684562     -0.6472633076      1.7905338032
 H     -2.7960184356     -2.2770623994      1.3709371556
 H     -1.4406944536     -1.9869705715     -0.5986059282
 H     -2.4961145732     -0.6845912743     -0.5440183019
 O     -0.0847489250      0.5566859493     -1.8724042700
 H     -0.9148329640      0.8335777647     -2.4155282734
 H      0.6185616340      1.1734191307     -2.0802778683
 O      1.5730396713      1.3617540400      0.2249771650
 H      1.9909329642      1.6347555614     -0.6357859747
 H      2.2128283417      0.9129472987      0.8350004367
 O      1.5221991603     -1.3158803353     -0.7733518990
 H      1.6228916585     -1.0700693384     -1.6664791095
 H      2.4297720090     -1.2715795564     -0.4425950306
 O     -1.1537303185      1.5525663686      0.6148814093
 H     -1.9303910577      1.8364611374      0.0962611719
 H     -0.6665905225      2.3567824374      0.6749211349
 O      4.3339033857     -1.8310172251      0.2981948579
 H      4.1769491387     -2.7408060469      0.5269847708
 H      5.3004138361     -1.7912193067      0.1842924123
 O     -1.9737417328      0.9377980585     -3.5841456963
 H     -2.7382895888      0.3836810009     -3.5859967180
 H     -1.6863847685      0.9526694378     -4.4635534337
 O     -3.5246485170      2.3922390175     -0.5060079346
 H     -3.8792301006      2.7385890912      0.2903031682
 H     -3.3660143146      3.1966660019     -0.9987293475
 O      2.9641643625     -0.1192933993      2.1479296276
 H      3.5895880845     -0.6006950585      1.5803812798
 H      3.4166232458      0.2162448725      2.9263077018
 O     -4.0599477970     -0.3632201327     -1.5493006525
 H     -4.7938694624     -0.9011618514     -1.7021401959
 H     -4.2975049727      0.5363165098     -1.2687720428
 O      2.0865153584      2.0537079510     -2.6422927324
 H      1.6819656863      2.8982719000     -2.8790958302
 H      2.6958205111      1.8525442448     -3.3216619522
43
# ORCA AIMD Position Step 128, t=64.00 fs, E_Pot=-170993.61143993 kJ mol^-1, Unit is Angstrom
Zn     -0.0274338664     -0.0724025600      0.0499649001
 N      0.1550420214     -0.7432828242      1.8729519916
 C     -0.7691282053     -1.8895255130      2.0208067239
 C     -2.0287674010     -1.4880750359      1.2794187297
 N     -1.7286424795     -1.1437186644     -0.1060544480
 H      1.0899335924     -1.0944779633      2.1031881711
 H     -0.1010631167     -0.0407370649      2.5708534498
 H     -0.3718828924     -2.7198386957      1.4391842420
 H     -0.9579611298     -2.2345316262      3.0133135733
 H     -2.4396841611     -0.6533270252      1.7972746871
 H     -2.7802106764     -2.2668554980      1.3769709387
 H     -1.4376740979     -1.9914970744     -0.6064784946
 H     -2.4980414102     -0.6888847097     -0.5490910230
 O     -0.0863218442      0.5573454077     -1.8730461071
 H     -0.9056525374      0.8254307312     -2.4092249617
 H      0.6176698287      1.1810203315     -2.0825924588
 O      1.5715632337      1.3612714557      0.2252513119
 H      1.9925593622      1.6351753533     -0.6481704406
 H      2.2111391581      0.9114516768      0.8341186717
 O      1.5240978161     -1.3167170623     -0.7723334441
 H      1.6324269976     -1.0630386236     -1.6633276178
 H      2.4272502614     -1.2778251895     -0.4394058883
 O     -1.1533656487      1.5530106850      0.6156850671
 H     -1.9334646646      1.8366070576      0.1041204539
 H     -0.6626364634      2.3600280341      0.6746083871
 O      4.3371259693     -1.8299771215      0.2971306907
 H      4.1712699743     -2.7376635696      0.5397598312
 H      5.3021721541     -1.7842710825      0.2004029569
 O     -1.9743821298      0.9413684130     -3.5849457326
 H     -2.7280131061      0.3819252338     -3.5895901719
 H     -1.6811485097      0.9615779294     -4.4762941099
 O     -3.5251558645      2.3903437328     -0.5042871089
 H     -3.8771470421      2.7401520902      0.3004957621
 H     -3.3690143890      3.1961506362     -1.0030684213
 O      2.9637547524     -0.1200984220      2.1491056805
 H      3.5892627156     -0.5984574388      1.5787282378
 H      3.4188879236      0.2165141099      2.9216240905
 O     -4.0611592397     -0.3633602556     -1.5489527274
 H     -4.8065311155     -0.8981418243     -1.7185081141
 H     -4.3029827644      0.5303200440     -1.2764236343
 O      2.0865567167      2.0510230956     -2.6447248798
 H      1.6841502946      2.8969756388     -2.8825379841
 H      2.7024776904      1.8445213920     -3.3325191692
43
# ORCA AIMD Position Step 129, t=64.50 fs, E_Pot=-170995.91135014 kJ mol^-1, Unit is Angstrom
Zn     -0.0273920058     -0.0718183960      0.0496385247
 N      0.1550023547     -0.7442338006      1.8728761384
 C     -0.7683271215     -1.8906570487      2.0245789685
 C     -2.0320997881     -1.4878509040      1.2788091611
 N     -1.7274209271     -1.1426987178     -0.1059335391
 H      1.0816339518     -1.1014495516      2.1077149111
 H     -0.0902836112     -0.0516885248      2.5666481590
 H     -0.3880643748     -2.7305196678      1.4467832550
 H     -0.9611893755     -2.2245774723      3.0044774504
 H     -2.4397080411     -0.6569685622      1.8044442381
 H     -2.7646490382     -2.2576967276      1.3825910522
 H     -1.4359401200     -1.9952025991     -0.6142553557
 H     -2.5017839358     -0.6931157466     -0.5554574051
 O     -0.0880537435      0.5580025104     -1.8736968409
 H     -0.8941577261      0.8163139576     -2.4017672756
 H      0.6173030079      1.1891563390     -2.0857876616
 O      1.5701526601      1.3607671679      0.2254141128
 H      1.9936415082      1.6344406368     -0.6572680633
 H      2.2090301317      0.9111764171      0.8319725746
 O      1.5259783669     -1.3176081800     -0.7710915065
 H      1.6418020834     -1.0552100072     -1.6641598508
 H      2.4253132489     -1.2844039056     -0.4353069742
 O     -1.1530597579      1.5534187306      0.6164887621
 H     -1.9375023390      1.8360147603      0.1116297486
 H     -0.6569869346      2.3648412191      0.6749016161
 O      4.3404514322     -1.8288853460      0.2960656014
 H      4.1649937785     -2.7354322860      0.5528115432
 H      5.3029327472     -1.7768721097      0.2164297509
 O     -1.9750078667      0.9450739413     -3.5856611414
 H     -2.7199795396      0.3783791226     -3.5923544500
 H     -1.6745242348      0.9708256563     -4.4917179987
 O     -3.5256199983      2.3884517354     -0.5026206495
 H     -3.8761477107      2.7416526452      0.3129731309
 H     -3.3717570987      3.1955162973     -1.0085640670
 O      2.9633251486     -0.1209112416      2.1502489799
 H      3.5890418300     -0.5962450777      1.5773964631
 H      3.4215110136      0.2167069326      2.9167883346
 O     -4.0621754085     -0.3633974292     -1.5485906530
 H     -4.8221479927     -0.8963332784     -1.7352696785
 H     -4.3088653152      0.5241048143     -1.2841786694
 O      2.0865139723      2.0483860005     -2.6470976025
 H      1.6866352709      2.8954023766     -2.8857978516
 H      2.7102810293      1.8359275256     -3.3445556297
43
# ORCA AIMD Position Step 130, t=65.00 fs, E_Pot=-170992.86387382 kJ mol^-1, Unit is Angstrom
Zn     -0.0273471500     -0.0712072061      0.0492906373
 N      0.1549911883     -0.7454082042      1.8729054732
 C     -0.7674538671     -1.8917035531      2.0279419226
 C     -2.0354935125     -1.4876437792      1.2782351004
 N     -1.7259228832     -1.1418022008     -0.1057392387
 H      1.0733751638     -1.1074680015      2.1124483749
 H     -0.0792219968     -0.0623624332      2.5627282106
 H     -0.4033085311     -2.7417858643      1.4546935660
 H     -0.9649396427     -2.2145741159      2.9985846188
 H     -2.4405705704     -0.6580469788      1.8120150935
 H     -2.7503086340     -2.2505961954      1.3878248565
 H     -1.4356440677     -1.9975960905     -0.6215709629
 H     -2.5070288452     -0.6974798557     -0.5629226256
 O     -0.0898723395      0.5586673326     -1.8743334712
 H     -0.8811923195      0.8064966802     -2.3936875603
 H      0.6170731273      1.1974873369     -2.0897565261
 O      1.5688082726      1.3602512967      0.2254256339
 H      1.9939282635      1.6323712312     -0.6625694355
 H      2.2065780820      0.9120728373      0.8286047471
 O      1.5278412489     -1.3185494972     -0.7696636232
 H      1.6510170659     -1.0466790411     -1.6683634962
 H      2.4242031574     -1.2913629531     -0.4301499873
 O     -1.1527843195      1.5538304652      0.6173039120
 H     -1.9425092445      1.8347166393      0.1188285036
 H     -0.6500293746      2.3706329496      0.6757247046
 O      4.3438704547     -1.8277561849      0.2950039895
 H      4.1582708543     -2.7336421158      0.5660949867
 H      5.3030411668     -1.7690691394      0.2324525481
 O     -1.9755667018      0.9489575958     -3.5864110793
 H     -2.7143595632      0.3728109563     -3.5943978885
 H     -1.6671518330      0.9804167104     -4.5080702514
 O     -3.5260659609      2.3865967964     -0.5009516618
 H     -3.8757702430      2.7427475253      0.3267874811
 H     -3.3743745776      3.1943633547     -1.0149171421
 O      2.9628648851     -0.1217458286      2.1513511335
 H      3.5889046055     -0.5940529638      1.5763442320
 H      3.4246537396      0.2169607429      2.9120546366
 O     -4.0630869561     -0.3634336537     -1.5482417755
 H     -4.8394072621     -0.8948093972     -1.7522721318
 H     -4.3153053849      0.5183137924     -1.2918884252
 O      2.0864473286      2.0457568051     -2.6494956036
 H      1.6894852929      2.8935025270     -2.8889171553
 H      2.7182621169      1.8270675255     -3.3567431088
43
# ORCA AIMD Position Step 131, t=65.50 fs, E_Pot=-170985.39807724 kJ mol^-1, Unit is Angstrom
Zn     -0.0272999506     -0.0705793654      0.0489274484
 N      0.1550152484     -0.7468459234      1.8729790486
 C     -0.7665460584     -1.8926151346      2.0307498458
 C     -2.0387944353     -1.4873764225      1.2777177993
 N     -1.7242071108     -1.1410505388     -0.1055144617
 H      1.0657986789     -1.1125824166      2.1172870713
 H     -0.0684699957     -0.0717194720      2.5599733224
 H     -0.4171733040     -2.7533522255      1.4627465541
 H     -0.9693353838     -2.2049867434      2.9967798030
 H     -2.4422073675     -0.6565890445      1.8196824064
 H     -2.7384842035     -2.2467090545      1.3926022938
 H     -1.4368820174     -1.9982804513     -0.6279620106
 H     -2.5132041398     -0.7021273181     -0.5710250847
 O     -0.0916442874      0.5593301586     -1.8749067410
 H     -0.8682008473      0.7965533985     -2.3858986127
 H      0.6166061869      1.2054674251     -2.0942921207
 O      1.5675509878      1.3597444456      0.2252566787
 H      1.9932746566      1.6289274334     -0.6637015258
 H      2.2039886598      0.9140100312      0.8242285449
 O      1.5296521908     -1.3195062625     -0.7681421922
 H      1.6598130691     -1.0378718481     -1.6748226259
 H      2.4240738778     -1.2985841893     -0.4239772048
 O     -1.1525163404      1.5542828423      0.6181210092
 H     -1.9483002146      1.8327735656      0.1256244663
 H     -0.6424063537      2.3765723928      0.6769661252
 O      4.3472876321     -1.8266352741      0.2939764748
 H      4.1514356148     -2.7317997581      0.5792228520
 H      5.3028921905     -1.7610878505      0.2481816190
 O     -1.9760163103      0.9529553269     -3.5872884249
 H     -2.7110962233      0.3653879168     -3.5957945289
 H     -1.6598358603      0.9900968273     -4.5233227006
 O     -3.5265084649      2.3848556732     -0.4992607048
 H     -3.8755567158      2.7430675589      0.3406100411
 H     -3.3769369122      3.1923339685     -1.0216593087
 O      2.9623754067     -0.1225951961      2.1523802404
 H      3.5888357878     -0.5919338447      1.5755465123
 H      3.4283818110      0.2173942159      2.9077571476
 O     -4.0639653208     -0.3635662828     -1.5479448453
 H     -4.8565544312     -0.8927099846     -1.7688973467
 H     -4.3222952519      0.5136981874     -1.2992335647
 O      2.0864143034      2.0431567031     -2.6519401747
 H      1.6926794159      2.8913146050     -2.8918765395
 H      2.7253476529      1.8184367235     -3.3678571277
43
# ORCA AIMD Position Step 132, t=66.00 fs, E_Pot=-170976.45263532 kJ mol^-1, Unit is Angstrom
Zn     -0.0272499568     -0.0699294726      0.0485461486
 N      0.1550788711     -0.7486109531      1.8730408260
 C     -0.7656213656     -1.8933818931      2.0329716663
 C     -2.0419539395     -1.4869666172      1.2772690689
 N     -1.7223035126     -1.1404304075     -0.1052936021
 H      1.0593250638     -1.1170089088      2.1222545564
 H     -0.0583032701     -0.0790576687      2.5590999802
 H     -0.4296410476     -2.7651834000      1.4710156183
 H     -0.9745345892     -2.1959036075      2.9996930360
 H     -2.4445164569     -0.6528239087      1.8272482680
 H     -2.7299328184     -2.2468272072      1.3969938103
 H     -1.4396774808     -1.9970806438     -0.6332401451
 H     -2.5198097389     -0.7073350722     -0.5794471817
 O     -0.0932713348      0.5599933196     -1.8753734145
 H     -0.8565266404      0.7868511379     -2.3792615992
 H      0.6155680177      1.2127956637     -2.0992958793
 O      1.5663568861      1.3592520561      0.2248889940
 H      1.9916474637      1.6240986288     -0.6606697149
 H      2.2014672551      0.9168289280      0.8190501026
 O      1.5314343926     -1.3204634880     -0.7665896290
 H      1.6681463250     -1.0290664209     -1.6823462689
 H      2.4249193831     -1.3061273776     -0.4167705698
 O     -1.1522283744      1.5548235370      0.6189497899
 H     -1.9547597330      1.8302071590      0.1321410744
 H     -0.6345965818      2.3819736005      0.6785301606
 O      4.3506944109     -1.8255394219      0.2929861868
 H      4.1446563523     -2.7293667471      0.5921360750
 H      5.3028917320     -1.7529441043      0.2637532728
 O     -1.9763541808      0.9570882812     -3.5883863595
 H     -2.7096708116      0.3563869354     -3.5966690183
 H     -1.6531035912      0.9998432588     -4.5361707021
 O     -3.5269711033      2.3832504984     -0.4974894478
 H     -3.8750922968      2.7423209227      0.3535534381
 H     -3.3795703928      3.1890976282     -1.0285067619
 O      2.9618487082     -0.1234717866      2.1533372591
 H      3.5888198115     -0.5898923546      1.5749491721
 H      3.4328020310      0.2181039917      2.9040413841
 O     -4.0648974191     -0.3638759336     -1.5477276973
 H     -4.8724404460     -0.8892906842     -1.7849596789
 H     -4.3299567937      0.5107362935     -1.3061309873
 O      2.0864612849      2.0405400543     -2.6545023229
 H      1.6962490355      2.8888710137     -2.8947457884
 H      2.7308402338      1.8102487688     -3.3771735430
43
# ORCA AIMD Position Step 133, t=66.50 fs, E_Pot=-170969.60478907 kJ mol^-1, Unit is Angstrom
Zn     -0.0271971466     -0.0692569427      0.0481466676
 N      0.1551840557     -0.7507427225      1.8730481451
 C     -0.7647100970     -1.8940020306      2.0345926960
 C     -2.0449257563     -1.4863505117      1.2769108807
 N     -1.7202607695     -1.1399255273     -0.1051063034
 H      1.0543807525     -1.1209132417      2.1273328885
 H     -0.0490057022     -0.0837962782      2.5606555932
 H     -0.4406147838     -2.7771169069      1.4795485716
 H     -0.9805655102     -2.1873390556      3.0074793601
 H     -2.4473432692     -0.6471332723      1.8343877444
 H     -2.7251929273     -2.2514312893      1.4010107447
 H     -1.4439803103     -1.9939777638     -0.6372580129
 H     -2.5262948859     -0.7133207859     -0.5877957084
 O     -0.0946397848      0.5606501780     -1.8756802995
 H     -0.8477059696      0.7778343618     -2.3747662222
 H      0.6136925060      1.2191613876     -2.1046485566
 O      1.5652025163      1.3587811457      0.2243170271
 H      1.9891228882      1.6179805511     -0.6537108704
 H      2.1992888116      0.9203141246      0.8133774624
 O      1.5332051277     -1.3213978328     -0.7650755348
 H      1.6759030347     -1.0206270009     -1.6896963311
 H      2.4266047066     -1.3139927249     -0.4086293233
 O     -1.1519000779      1.5554919819      0.6197920553
 H     -1.9616824555      1.8270486066      0.1384689906
 H     -0.6271035541      2.3861839056      0.6803144513
 O      4.3540581207     -1.8244912006      0.2920434579
 H      4.1381493753     -2.7258752893      0.6046704242
 H      5.3034096809     -1.7447068633      0.2791967222
 O     -1.9765956172      0.9613346019     -3.5897694753
 H     -2.7093748831      0.3463340174     -3.5971260840
 H     -1.6474202139      1.0095554693     -4.5455423168
 O     -3.5274700996      2.3818067000     -0.4955999749
 H     -3.8740458273      2.7402892735      0.3647852069
 H     -3.3823623318      3.1844245968     -1.0351713922
 O      2.9612840153     -0.1243787114      2.1542208348
 H      3.5888425356     -0.5879528914      1.5745024638
 H      3.4379371786      0.2191432721      2.9009963821
 O     -4.0659516106     -0.3644166905     -1.5476148074
 H     -4.8860259238     -0.8840210227     -1.8001793469
 H     -4.3382930216      0.5097392409     -1.3124962069
 O      2.0866237895      2.0378835894     -2.6572203500
 H      1.7001798937      2.8862598055     -2.8975778803
 H      2.7341858230      1.8027166093     -3.3840981189
43
# ORCA AIMD Position Step 134, t=67.00 fs, E_Pot=-170967.50522960 kJ mol^-1, Unit is Angstrom
Zn     -0.0271413941     -0.0685588915      0.0477275361
 N      0.1553316634     -0.7532674424      1.8729810299
 C     -0.7638468784     -1.8944904669      2.0356463481
 C     -2.0477075598     -1.4854918177      1.2766698994
 N     -1.7181232126     -1.1395109268     -0.1049728217
 H      1.0512764557     -1.1244437108      2.1325086102
 H     -0.0407213765     -0.0856805968      2.5648844692
 H     -0.4500626881     -2.7889985198      1.4884525590
 H     -0.9873641444     -2.1791348312      3.0197873636
 H     -2.4505221955     -0.6399840948      1.8407604253
 H     -2.7243769351     -2.2605507882      1.4046319232
 H     -1.4496875366     -1.9891074191     -0.6399780718
 H     -2.5321736388     -0.7202702539     -0.5957206676
 O     -0.0956555568      0.5612964678     -1.8757796177
 H     -0.8430832649      0.7698389322     -2.3732892765
 H      0.6107791340      1.2243420302     -2.1102676639
 O      1.5640518470      1.3583339279      0.2235472746
 H      1.9858830679      1.6107295648     -0.6433039241
 H      2.1977495616      0.9242326783      0.8075520512
 O      1.5349936870     -1.3222909086     -0.7636525544
 H      1.6830121164     -1.0128657999     -1.6957872562
 H      2.4288868068     -1.3222016025     -0.3996869182
 O     -1.1515162117      1.5563216918      0.6206511915
 H     -1.9688565843      1.8233161961      0.1447303815
 H     -0.6203376328      2.3886980971      0.6822297312
 O      4.3573636313     -1.8235037324      0.2911531085
 H      4.1320910311     -2.7209469462      0.6167271099
 H      5.3047327322     -1.7364125874      0.2946073694
 O     -1.9767709940      0.9656792793     -3.5914854179
 H     -2.7093980090      0.3358329291     -3.5972602223
 H     -1.6431083344      1.0191720033     -4.5507480331
 O     -3.5280189218      2.3805325159     -0.4935566122
 H     -3.8721762448      2.7368368421      0.3737113022
 H     -3.3853862715      3.1781754215     -1.0414530221
 O      2.9606827942     -0.1253190544      2.1550389205
 H      3.5888907781     -0.5861344129      1.5741538514
 H      3.4437619672      0.2205223450      2.8985993250
 O     -4.0671881604     -0.3652153753     -1.5476227672
 H     -4.8965811459     -0.8765559611     -1.8143808692
 H     -4.3472482936      0.5107586492     -1.3183324814
 O      2.0869263128      2.0351580489     -2.6601278468
 H      1.7044522475      2.8835907933     -2.9004384605
 H      2.7350466845      1.7959552376     -3.3882829263
43
# ORCA AIMD Position Step 135, t=67.50 fs, E_Pot=-170970.83697384 kJ mol^-1, Unit is Angstrom
Zn     -0.0270841648     -0.0678513332      0.0472986336
 N      0.1555185579     -0.7561171150      1.8728494823
 C     -0.7630956068     -1.8948606330      2.0361791031
 C     -2.0502564614     -1.4844147891      1.2765823126
 N     -1.7159926107     -1.1391667457     -0.1049059648
 H      1.0502520157     -1.1276066030      2.1376082365
 H     -0.0336887702     -0.0847951760      2.5715263965
 H     -0.4577373274     -2.8003355636      1.4976125985
 H     -0.9945762256     -2.1712475702      3.0354471621
 H     -2.4538003108     -0.6320986143      1.8458567570
 H     -2.7271722613     -2.2734468048      1.4076863193
 H     -1.4564681822     -1.9829111559     -0.6413991264
 H     -2.5368899843     -0.7281035748     -0.6027043472
 O     -0.0962360914      0.5619155492     -1.8756403558
 H     -0.8436008695      0.7632429872     -2.3754096464
 H      0.6067884849      1.2280616045     -2.1159407962
 O      1.5628923947      1.3579195054      0.2226256643
 H      1.9823276461      1.6027904725     -0.6305193816
 H      2.1971775460      0.9282377964      0.8020935385
 O      1.5367843750     -1.3231045460     -0.7623948456
 H      1.6892442992     -1.0062446892     -1.6995922786
 H      2.4313792445     -1.3305456469     -0.3903659427
 O     -1.1510789718      1.5573120782      0.6215066107
 H     -1.9758658564      1.8191350734      0.1508777576
 H     -0.6147895468      2.3891249796      0.6841464403
 O      4.3605172668     -1.8226081198      0.2903404855
 H      4.1267854403     -2.7144790792      0.6279262560
 H      5.3069776669     -1.7283203862      0.3096744483
 O     -1.9769134479      0.9699878966     -3.5935122355
 H     -2.7089420627      0.3257912767     -3.5971510707
 H     -1.6404687913      1.0283888764     -4.5513281671
 O     -3.5286113365      2.3794557648     -0.4913889538
 H     -3.8693979630      2.7320254895      0.3797410101
 H     -3.3886084020      3.1705080076     -1.0470663191
 O      2.9600671417     -0.1262674440      2.1557838842
 H      3.5889497895     -0.5845019095      1.5738612350
 H      3.4500243767      0.2221657688      2.8967894746
 O     -4.0686212158     -0.3662467544     -1.5477588167
 H     -4.9033886996     -0.8669627965     -1.8270840247
 H     -4.3564282376      0.5135430581     -1.3235525137
 O      2.0873722145      2.0324119349     -2.6631651768
 H      1.7089158070      2.8810632056     -2.9033153265
 H      2.7332883715      1.7901794685     -3.3895142132
43
# ORCA AIMD Position Step 136, t=68.00 fs, E_Pot=-170977.96148037 kJ mol^-1, Unit is Angstrom
Zn     -0.0270255329     -0.0671320939      0.0468589187
 N      0.1557479217     -0.7592662585      1.8726882240
 C     -0.7624998301     -1.8951441971      2.0362927851
 C     -2.0526276788     -1.4831548493      1.2766769976
 N     -1.7139109625     -1.1388581459     -0.1049029428
 H      1.0512857839     -1.1304417547      2.1425693640
 H     -0.0278153889     -0.0816342143      2.5800696690
 H     -0.4636757315     -2.8109478406      1.5071493794
 H     -1.0019554725     -2.1633767913      3.0533049371
 H     -2.4570264571     -0.6240133566      1.8493770018
 H     -2.7328940914     -2.2891994977      1.4100583264
 H     -1.4640773676     -1.9758599942     -0.6416975784
 H     -2.5401648134     -0.7368338376     -0.6085082128
 O     -0.0963812193      0.5625155552     -1.8752644487
 H     -0.8492876863      0.7579895962     -2.3811526670
 H      0.6016897908      1.2302750668     -2.1216285415
 O      1.5616769865      1.3575282116      0.2215988920
 H      1.9789013093      1.5945061364     -0.6164571370
 H      2.1978036028      0.9321111679      0.7973425974
 O      1.5386078855     -1.3238297856     -0.7613205569
 H      1.6945965849     -1.0009387084     -1.7005247458
 H      2.4337258689     -1.3390230539     -0.3808777780
 O     -1.1505876062      1.5584707778      0.6223598979
 H     -1.9824958290      1.8145414779      0.1570143194
 H     -0.6106469963      2.3873464113      0.6860014788
 O      4.3635249328     -1.8217995989      0.2896037990
 H      4.1223281712     -2.7064038813      0.6382623465
 H      5.3101363067     -1.7204725018      0.3244907126
 O     -1.9770619108      0.9742425532     -3.5958495947
 H     -2.7073283273      0.3167694731     -3.5968687546
 H     -1.6395456453      1.0371791705     -4.5473284399
 O     -3.5292504025      2.3785560934     -0.4890839130
 H     -3.8656845134      2.7259319399      0.3827819187
 H     -3.3920476292      3.1615485387     -1.0519859563
 O      2.9594470765     -0.1272206771      2.1564743237
 H      3.5890044933     -0.5830679017      1.5735774240
 H      3.4565684644      0.2239948830      2.8953632161
 O     -4.0702832750     -0.3674802531     -1.5480219707
 H     -4.9063090723     -0.8553084059     -1.8382648277
 H     -4.3655920172      0.5176445118     -1.3282711237
 O      2.0879591094      2.0296282426     -2.6663339608
 H      1.7135250134      2.8788049860     -2.9062625181
 H      2.7290294013      1.7853386069     -3.3879387354
43
# ORCA AIMD Position Step 137, t=68.50 fs, E_Pot=-170985.79913526 kJ mol^-1, Unit is Angstrom
Zn     -0.0269648791     -0.0663902401      0.0464019237
 N      0.1560311708     -0.7627162082      1.8725487213
 C     -0.7620975371     -1.8953744177      2.0360958061
 C     -2.0549140312     -1.4817520794      1.2769824775
 N     -1.7118902035     -1.1385447913     -0.1049502915
 H      1.0542307994     -1.1329581356      2.1473613817
 H     -0.0228817904     -0.0768697628      2.5898808236
 H     -0.4679857375     -2.8207857893      1.5172941116
 H     -1.0093196397     -2.1551414724      3.0723441283
 H     -2.4601163473     -0.6161235248      1.8511019822
 H     -2.7407786346     -2.3068800992      1.4116326758
 H     -1.4723266793     -1.9684559982     -0.6411273596
 H     -2.5418682480     -0.7465066503     -0.6130247676
 O     -0.0961413680      0.5631180230     -1.8746763684
 H     -0.8595259991      0.7537767579     -2.3901462739
 H      0.5954547452      1.2310329725     -2.1273861673
 O      1.5603415970      1.3571383551      0.2205201446
 H      1.9761299726      1.5861832640     -0.6022849156
 H      2.1997880556      0.9357337468      0.7935284640
 O      1.5405139692     -1.3244710436     -0.7604203272
 H      1.6991568285     -0.9969915364     -1.6982489426
 H      2.4356103057     -1.3477276083     -0.3713176441
 O     -1.1500411084      1.5598084591      0.6232229031
 H     -1.9886362459      1.8095199787      0.1632945263
 H     -0.6079386604      2.3833943433      0.6877714429
 O      4.3664390860     -1.8210549770      0.2889303196
 H      4.1187197046     -2.6966961197      0.6479008271
 H      5.3140995795     -1.7128235992      0.3393135404
 O     -1.9772552700      0.9784811435     -3.5985075607
 H     -2.7040104234      0.3091107838     -3.5964638260
 H     -1.6402557233      1.0456451308     -4.5390325533
 O     -3.5299426512      2.3777917323     -0.4866093144
 H     -3.8610542588      2.7186386680      0.3829914786
 H     -3.3957427401      3.1514128247     -1.0563292228
 O      2.9588276310     -0.1281855494      2.1571387401
 H      3.5890367796     -0.5818259423      1.5732569312
 H      3.4632855348      0.2259311599      2.8940592587
 O     -4.0722154474     -0.3688837684     -1.5484085250
 H     -4.9054656841     -0.8416624653     -1.8481094135
 H     -4.3745529867      0.5225502797     -1.3326746735
 O      2.0886800956      2.0267631082     -2.6696614423
 H      1.7182930219      2.8769033088     -2.9093565021
 H      2.7225215721      1.7812488002     -3.3838835341
43
# ORCA AIMD Position Step 138, t=69.00 fs, E_Pot=-170991.02596307 kJ mol^-1, Unit is Angstrom
Zn     -0.0269024277     -0.0656252933      0.0459275233
 N      0.1563828990     -0.7664169079      1.8724951562
 C     -0.7619344389     -1.8955757272      2.0356930413
 C     -2.0571731144     -1.4802753802      1.2775207904
 N     -1.7099667700     -1.1381901739     -0.1050246626
 H      1.0587991414     -1.1350706279      2.1518554407
 H     -0.0187293439     -0.0713346697      2.6000826061
 H     -0.4706921071     -2.8296588004      1.5281237786
 H     -1.0163824791     -2.1463209972      3.0913192328
 H     -2.4629707380     -0.6088813699      1.8508156173
 H     -2.7499386281     -2.3252607143      1.4122575051
 H     -1.4808860458     -1.9614015819     -0.6400021409
 H     -2.5419395791     -0.7569661446     -0.6161293991
 O     -0.0956034650      0.5637375232     -1.8739264633
 H     -0.8730748012      0.7502630280     -2.4015753046
 H      0.5882009531      1.2304307285     -2.1332116031
 O      1.5588413902      1.3567267449      0.2194741912
 H      1.9746836003      1.5782925772     -0.5895485617
 H      2.2031707390      0.9390011408      0.7908646339
 O      1.5425208902     -1.3250272223     -0.7596864100
 H      1.7029669947     -0.9944496485     -1.6926608795
 H      2.4367212347     -1.3566237277     -0.3619049997
 O     -1.1494512493      1.5613069396      0.6240952819
 H     -1.9941137961      1.8041308555      0.1697569710
 H     -0.6066349170      2.3775093273      0.6894231642
 O      4.3692779799     -1.8203540021      0.2883155854
 H      4.1159785202     -2.6855898778      0.6569135622
 H      5.3185920268     -1.7054497969      0.3541663250
 O     -1.9775283302      0.9826849102     -3.6014410812
 H     -2.6986346681      0.3031593868     -3.5959778368
 H     -1.6423934017      1.0537916108     -4.5271184612
 O     -3.5306807218      2.3771232423     -0.4839766895
 H     -3.8556721280      2.7104030524      0.3807156764
 H     -3.3996632817      3.1404401080     -1.0602224101
 O      2.9582244362     -0.1291542891      2.1577956182
 H      3.5890230083     -0.5807881493      1.5728633523
 H      3.4699549519      0.2278596536      2.8926228354
 O     -4.0744200549     -0.3703949646     -1.5489050974
 H     -4.9011929231     -0.8264147757     -1.8567335199
 H     -4.3829581548      0.5276447262     -1.3368760118
 O      2.0895064434      2.0238213021     -2.6731147446
 H      1.7231736569      2.8754518640     -2.9126147452
 H      2.7142853504      1.7777105733     -3.3779231525
43
# ORCA AIMD Position Step 139, t=69.50 fs, E_Pot=-170991.51680876 kJ mol^-1, Unit is Angstrom
Zn     -0.0268390874     -0.0648458173      0.0454411994
 N      0.1568189171     -0.7702734927      1.8725926583
 C     -0.7620520275     -1.8957639637      2.0351882974
 C     -2.0594284116     -1.4788133112      1.2782972241
 N     -1.7081904174     -1.1377647065     -0.1050937913
 H      1.0645392623     -1.1366406330      2.1558569328
 H     -0.0152424185     -0.0659388552      2.6096714588
 H     -0.4718114283     -2.8373107489      1.5395589246
 H     -1.0228080730     -2.1368663308      3.1088896591
 H     -2.4654959343     -0.6027349333      1.8483954202
 H     -2.7594218837     -2.3429469043      1.4118048155
 H     -1.4893107963     -1.9555227923     -0.6386892263
 H     -2.5404572022     -0.7678583932     -0.6177513960
 O     -0.0948840273      0.5643775166     -1.8730836306
 H     -0.8882642460      0.7471121445     -2.4143021461
 H      0.5802176045      1.2286678851     -2.1390637546
 O      1.5571585793      1.3562708912      0.2185635375
 H      1.9752298830      1.5713717837     -0.5799003606
 H      2.2078176036      0.9418611129      0.7894659400
 O      1.5446159264     -1.3254971888     -0.7591038011
 H      1.7060698911     -0.9932910468     -1.6840123560
 H      2.4368093718     -1.3655684635     -0.3529379309
 O     -1.1488424256      1.5629167577      0.6249669877
 H     -1.9987428669      1.7985113938      0.1763352609
 H     -0.6065802348      2.3702055166      0.6909237876
 O      4.3720355901     -1.8196760544      0.2877587166
 H      4.1140962737     -2.6735917497      0.6653423294
 H      5.3231985219     -1.6985131787      0.3688789997
 O     -1.9779103255      0.9867930074     -3.6045445294
 H     -2.6911129776      0.2991586840     -3.5954464927
 H     -1.6455593224      1.0615734489     -4.5128205892
 O     -3.5314433647      2.3765082083     -0.4812410857
 H     -3.8498652404      2.7016742917      0.3765979339
 H     -3.4037172317      3.1291776367     -1.0638209936
 O      2.9576601913     -0.1301081900      2.1584542093
 H      3.5889350275     -0.5799731730      1.5723708448
 H      3.4762830486      0.2296476445      2.8908327424
 O     -4.0768529781     -0.3719253152     -1.5494852673
 H     -4.8941902844     -0.8102988797     -1.8642802278
 H     -4.3903621487      0.5322834149     -1.3409207811
 O      2.0903847697      2.0208512373     -2.6766056849
 H      1.7280787090      2.8745175488     -2.9159972235
 H      2.7051678864      1.7744675403     -3.3709538326
43
# ORCA AIMD Position Step 140, t=70.00 fs, E_Pot=-170986.97882546 kJ mol^-1, Unit is Angstrom
Zn     -0.0267752378     -0.0640550552      0.0449451531
 N      0.1573601716     -0.7742207629      1.8728968110
 C     -0.7624805310     -1.8959491666      2.0346717383
 C     -2.0617066636     -1.4774391488      1.2793074178
 N     -1.7065844399     -1.1372448224     -0.1051222532
 H      1.0709698860     -1.1375450622      2.1592075299
 H     -0.0122894333     -0.0614599327      2.6178221862
 H     -0.4714106210     -2.8436077443      1.5515577907
 H     -1.0283682881     -2.1267431804      3.1240621846
 H     -2.4676628927     -0.5979623379      1.8438293272
 H     -2.7684583183     -2.3588356847      1.4102029787
 H     -1.4972367207     -1.9515348850     -0.6375341323
 H     -2.5376457218     -0.7788415842     -0.6179445479
 O     -0.0941001755      0.5650377896     -1.8722089554
 H     -0.9035515770      0.7440004116     -2.4272803706
 H      0.5718273260      1.2260362275     -2.1449756626
 O      1.5552842947      1.3557471138      0.2178685410
 H      1.9782557425      1.5657857365     -0.5745358122
 H      2.2134689759      0.9443736302      0.7892919356
 O      1.5467912139     -1.3258909770     -0.7586362040
 H      1.7085868553     -0.9933628796     -1.6728263476
 H      2.4357381860     -1.3744824058     -0.3445964979
 O     -1.1482395785      1.5645863540      0.6258349043
 H     -2.0024433938      1.7927740284      0.1829787563
 H     -0.6074685016      2.3621443975      0.6922731424
 O      4.3747321055     -1.8189890739      0.2872512645
 H      4.1129837888     -2.6612454346      0.6733590452
 H      5.3275051774     -1.6921126886      0.3833702114
 O     -1.9784290549      0.9907830356     -3.6077070975
 H     -2.6815376438      0.2971119130     -3.5948916548
 H     -1.6491913661      1.0690609605     -4.4977015302
 O     -3.5322095197      2.3758920354     -0.4784520811
 H     -3.8440112138      2.6929254015      0.3715215935
 H     -3.4078323881      3.1181304710     -1.0673568023
 O      2.9571514343     -0.1310370348      2.1591249542
 H      3.5887407254     -0.5793853186      1.5717575207
 H      3.4820554458      0.2311975923      2.8885079696
 O     -4.0794620811     -0.3733943951     -1.5501186481
 H     -4.8854542543     -0.7940879857     -1.8710993880
 H     -4.3964260350      0.5359641885     -1.3448546356
 O      2.0912548670      2.0178890337     -2.6800585592
 H      1.7329734784      2.8741014547     -2.9194672485
 H      2.6961413180      1.7711503820     -3.3640432378
43
# ORCA AIMD Position Step 141, t=70.50 fs, E_Pot=-170978.58331971 kJ mol^-1, Unit is Angstrom
Zn     -0.0267106475     -0.0632501366      0.0444377489
 N      0.1580323158     -0.7782313404      1.8734522737
 C     -0.7632446163     -1.8961356096      2.0342158805
 C     -2.0640378252     -1.4762079268      1.2805430014
 N     -1.7051463082     -1.1366166565     -0.1050761703
 H      1.0776586708     -1.1376868407      2.1617891502
 H     -0.0097484948     -0.0584802282      2.6239378061
 H     -0.4695695845     -2.8485221618      1.5641342081
 H     -1.0329390577     -2.1159049904      3.1361909868
 H     -2.4695019513     -0.5946824738      1.8371680671
 H     -2.7764979429     -2.3721515411      1.4074153867
 H     -1.5044112161     -1.9499697657     -0.6367950846
 H     -2.5338294530     -0.7896182107     -0.6168519901
 O     -0.0933532893      0.5657142257     -1.8713461210
 H     -0.9177407505      0.7406590625     -2.4397068966
 H      0.5633519892      1.2228781146     -2.1510567661
 O      1.5532212349      1.3551348411      0.2174311381
 H      1.9839645993      1.5616690658     -0.5739805216
 H      2.2197934645      0.9466871946      0.7901897771
 O      1.5490462601     -1.3262281226     -0.7582297438
 H      1.7107052382     -0.9944083509     -1.6598209491
 H      2.4334720108     -1.3833606063     -0.3369391883
 O     -1.1476659157      1.5662679902      0.6267034647
 H     -2.0052275266      1.7869963960      0.1896607711
 H     -0.6088895839      2.3540523239      0.6934977081
 O      4.3774099298     -1.8182526345      0.2867791281
 H      4.1124988876     -2.6490600305      0.6812383079
 H      5.3311571833     -1.6862836584      0.3976566887
 O     -1.9791126429      0.9946716404     -3.6108230329
 H     -2.6701176853      0.2968217899     -3.5943218550
 H     -1.6526161480      1.0764337305     -4.4835211239
 O     -3.5329603477      2.3752132906     -0.4756485108
 H     -3.8384986293      2.6846129303      0.3665086720
 H     -3.4119710515      3.1076997988     -1.0710964810
 O      2.9567079418     -0.1319400317      2.1598187074
 H      3.5884030976     -0.5790206823      1.5710037718
 H      3.4871501465      0.2324559733      2.8855191864
 O     -4.0821945152     -0.3747356841     -1.5507735789
 H     -4.8761846959     -0.7785352016     -1.8777270934
 H     -4.4009214046      0.5383588087     -1.3487164950
 O      2.0920565082      2.0149540250     -2.6834186087
 H      1.7378821578      2.8741502066     -2.9229958160
 H      2.6881970935      1.7673152266     -3.3583084561
43
# ORCA AIMD Position Step 142, t=71.00 fs, E_Pot=-170968.61767508 kJ mol^-1, Unit is Angstrom
Zn     -0.0266447089     -0.0624250252      0.0439153241
 N      0.1588633572     -0.7823013214      1.8742935960
 C     -0.7643675227     -1.8963218474      2.0338791635
 C     -2.0664475018     -1.4751645411      1.2819919752
 N     -1.7038565254     -1.1358809422     -0.1049263768
 H      1.0842404298     -1.1369944516      2.1635076583
 H     -0.0075274056     -0.0574185185      2.6276037128
 H     -0.4663559329     -2.8520860824      1.5773192938
 H     -1.0364609167     -2.1043103235      3.1448598579
 H     -2.4710881167     -0.5928953793      1.8285055126
 H     -2.7831562100     -2.3823435593      1.4034235897
 H     -1.5106705419     -1.9511497142     -0.6366016267
 H     -2.5294082941     -0.7999051190     -0.6146754157
 O     -0.0927275291      0.5663978410     -1.8705232290
 H     -0.9299584869      0.7368872880     -2.4510002432
 H      0.5551227544      1.2195631934     -2.1574650248
 O      1.5509911700      1.3544206149      0.2172513942
 H      1.9922194842      1.5589434228     -0.5780478166
 H      2.2264168665      0.9490026085      0.7919387473
 O      1.5513804533     -1.3265347387     -0.7578172424
 H      1.7126603131     -0.9960859511     -1.6459041710
 H      2.4300620697     -1.3922387598     -0.3299440375
 O     -1.1471435043      1.5679150808      0.6275813364
 H     -2.0071678117      1.7812421383      0.1963555257
 H     -0.6103750467      2.3467031843      0.6946392614
 O      4.3801189459     -1.8174237429      0.2863263235
 H      4.1124780759     -2.6375037397      0.6892989437
 H      5.3338718884     -1.6810285148      0.4117963315
 O     -1.9799871045      0.9984974185     -3.6137895426
 H     -2.6571696672      0.2979334749     -3.5937360176
 H     -1.6551019108      1.0839334664     -4.4721338244
 O     -3.5336776435      2.3744105204     -0.4728656285
 H     -3.8337189129      2.6771819688      0.3626392679
 H     -3.4161231108      3.0981899374     -1.0752881726
 O      2.9563351134     -0.1328220422      2.1605438475
 H      3.5878796246     -0.5788754315      1.5700919801
 H      3.4915135355      0.2334085815      2.8817977949
 O     -4.0849934163     -0.3758933478     -1.5514167022
 H     -4.8677197385     -0.7643890731     -1.8848272920
 H     -4.4036913495      0.5392925894     -1.3525219666
 O      2.0927334086      2.0120571160     -2.6866458098
 H      1.7428680950      2.8745696825     -2.9265595705
 H      2.6822636104      1.7625061763     -3.3548081308
43
# ORCA AIMD Position Step 143, t=71.50 fs, E_Pot=-170960.53108905 kJ mol^-1, Unit is Angstrom
Zn     -0.0265781118     -0.0615914825      0.0433854714
 N      0.1598605785     -0.7863463793      1.8754228292
 C     -0.7658425077     -1.8964969616      2.0337157397
 C     -2.0688972366     -1.4743714042      1.2836023796
 N     -1.7027120449     -1.1350741390     -0.1046555617
 H      1.0902767080     -1.1354514757      2.1642572518
 H     -0.0056181477     -0.0585509939      2.6285002398
 H     -0.4619079189     -2.8543023344      1.5908277678
 H     -1.0388480161     -2.0922074937      3.1496510807
 H     -2.4725005953     -0.5925246814      1.8181983300
 H     -2.7880323548     -2.3888165182      1.3983254399
 H     -1.5157931029     -1.9551031137     -0.6369290512
 H     -2.5249461163     -0.8091903847     -0.6117190845
 O     -0.0923045809      0.5670603397     -1.8697750162
 H     -0.9393280027      0.7326355086     -2.4605045860
 H      0.5476592956      1.2165398613     -2.1642326655
 O      1.5486881336      1.3536161794      0.2172940683
 H      2.0023487284      1.5574126017     -0.5857995424
 H      2.2327922374      0.9514895736      0.7942377395
 O      1.5537343323     -1.3268347885     -0.7573313032
 H      1.7146811825     -0.9979380320     -1.6324841838
 H      2.4257293605     -1.4009713341     -0.3236862012
 O     -1.1467032158      1.5694455833      0.6284594279
 H     -2.0083446285      1.7757060349      0.2028717416
 H     -0.6114162850      2.3410229643      0.6957185150
 O      4.3828449062     -1.8164820441      0.2858879545
 H      4.1127571147     -2.6272374915      0.6976702164
 H      5.3353974725     -1.6764447740      0.4255371202
 O     -1.9810479080      1.0022254761     -3.6164507815
 H     -2.6434258382      0.2999119917     -3.5931431977
 H     -1.6559147572      1.0916454076     -4.4654690648
 O     -3.5343286080      2.3734483788     -0.4701989095
 H     -3.8301325530      2.6712033501      0.3610017071
 H     -3.4202082156      3.0900079183     -1.0800141592
 O      2.9560429269     -0.1336713867      2.1612877701
 H      3.5871368246     -0.5789472751      1.5690267140
 H      3.4950558260      0.2340593950      2.8774345069
 O     -4.0877370283     -0.3767990509     -1.5520005671
 H     -4.8615823669     -0.7526579333     -1.8929462721
 H     -4.4045892247      0.5387239968     -1.3561705359
 O      2.0932271424      2.0092687579     -2.6896449873
 H      1.7479052365      2.8752228435     -2.9300577712
 H      2.6791789612      1.7564538140     -3.3544371509
43
# ORCA AIMD Position Step 144, t=72.00 fs, E_Pot=-170957.48601753 kJ mol^-1, Unit is Angstrom
Zn     -0.0265106487     -0.0607514424      0.0428495803
 N      0.1610345380     -0.7903389633      1.8768333659
 C     -0.7676658214     -1.8966481414      2.0337617804
 C     -2.0713665915     -1.4738701400      1.2853302416
 N     -1.7016838681     -1.1342431433     -0.1042568459
 H      1.0955091010     -1.1330918805      2.1639979658
 H     -0.0040167492     -0.0619415048      2.6265671725
 H     -0.4563422443     -2.8552793396      1.6045020730
 H     -1.0401205550     -2.0797416059      3.1504842112
 H     -2.4738748594     -0.5933419799      1.8065884082
 H     -2.7909498126     -2.3913188117      1.3922109091
 H     -1.5197272474     -1.9615577340     -0.6375857102
 H     -2.5209766183     -0.8171210437     -0.6083021828
 O     -0.0921384558      0.5676815873     -1.8691167531
 H     -0.9453886067      0.7278702896     -2.4678739449
 H      0.5413340050      1.2141682130     -2.1714572733
 O      1.5463939371      1.3527329042      0.2174928182
 H      2.0135202919      1.5567265741     -0.5958830951
 H      2.2384703323      0.9543349118      0.7967947044
 O      1.5560698570     -1.3271576561     -0.7566987649
 H      1.7170360061     -0.9994873468     -1.6208710692
 H      2.4207493557     -1.4095339280     -0.3180970494
 O     -1.1463613525      1.5708067541      0.6293407208
 H     -2.0089124178      1.7705141311      0.2090866622
 H     -0.6116040656      2.3376993125      0.6967636054
 O      4.3855974600     -1.8154082581      0.2854566307
 H      4.1131924808     -2.6186353277      0.7065208978
 H      5.3356408593     -1.6725353232      0.4388064541
 O     -1.9822789650      1.0058789276     -3.6187284632
 H     -2.6295644768      0.3021008588     -3.5925486378
 H     -1.6545965467      1.0996941857     -4.4646576187
 O     -3.5348951948      2.3722992736     -0.4676981946
 H     -3.8280175145      2.6670319388      0.3623287246
 H     -3.4242221317      3.0832937546     -1.0852894602
 O      2.9558320214     -0.1344899168      2.1620413887
 H      3.5861380655     -0.5792280233      1.5678052062
 H      3.4978108321      0.2344662004      2.8725594252
 O     -4.0903507707     -0.3774228617     -1.5524934397
 H     -4.8588872426     -0.7439600828     -1.9026152811
 H     -4.4036033964      0.5367908060     -1.3595820049
 O      2.0935140372      2.0066135634     -2.6923899686
 H      1.7530404311      2.8759563607     -2.9334394728
 H      2.6792714944      1.7490162060     -3.3575627995
43
# ORCA AIMD Position Step 145, t=72.50 fs, E_Pot=-170960.68374977 kJ mol^-1, Unit is Angstrom
Zn     -0.0264416734     -0.0599024689      0.0423062546
 N      0.1623957438     -0.7942802191      1.8785098701
 C     -0.7698360851     -1.8967603930      2.0340408812
 C     -2.0738390000     -1.4736932367      1.2871345538
 N     -1.7007333331     -1.1334437931     -0.1037324326
 H      1.0998175760     -1.1299893821      2.1627281864
 H     -0.0027434370     -0.0674912026      2.6219232331
 H     -0.4497514487     -2.8551736067      1.6182349805
 H     -1.0403569698     -2.0670156070      3.1474764448
 H     -2.4753824011     -0.5950179937      1.7940165855
 H     -2.7918688309     -2.3897933552      1.3851626684
 H     -1.5225157137     -1.9700302226     -0.6382586984
 H     -2.5179764364     -0.8234409144     -0.6047253784
 O     -0.0922630376      0.5682486996     -1.8685544306
 H     -0.9479166160      0.7225752117     -2.4729330885
 H      0.5363951296      1.2126971095     -2.1792405211
 O      1.5441798544      1.3517812489      0.2177723090
 H      2.0248800153      1.5565016662     -0.6068758365
 H      2.2430839573      0.9577085187      0.7993581461
 O      1.5583580907     -1.3275315719     -0.7558529903
 H      1.7199874849     -1.0002980032     -1.6121945099
 H      2.4154375225     -1.4179594887     -0.3130365231
 O     -1.1461203703      1.5719691554      0.6302345498
 H     -2.0090580637      1.7657635181      0.2149043522
 H     -0.6106932040      2.3371482151      0.6977899571
 O      4.3883901249     -1.8141911118      0.2850275375
 H      4.1136903880     -2.6118347785      0.7159766198
 H      5.3346342984     -1.6692554635      0.4516135453
 O     -1.9836454751      1.0095108553     -3.6206162870
 H     -2.6162195235      0.3037884016     -3.5919635003
 H     -1.6510556476      1.1081437250     -4.4698721304
 O     -3.5353713812      2.3709497917     -0.4653790038
 H     -3.8274696402      2.6648292176      0.3668965494
 H     -3.4282081045      3.0780026255     -1.0910288735
 O      2.9556979146     -0.1352860997      2.1627953589
 H      3.5848454453     -0.5797086210      1.5664196392
 H      3.4998857829      0.2347238072      2.8673444325
 O     -4.0928043641     -0.3777675486     -1.5528820538
 H     -4.8601705458     -0.7385407319     -1.9141840271
 H     -4.4008022097      0.5337613371     -1.3626754110
 O      2.0936029133      2.0040878936     -2.6949033367
 H      1.7583540938      2.8766209221     -2.9366791314
 H      2.6823681036      1.7402369804     -3.3640101360
43
# ORCA AIMD Position Step 146, t=73.00 fs, E_Pot=-170968.63727914 kJ mol^-1, Unit is Angstrom
Zn     -0.0263702976     -0.0590399902      0.0417527217
 N      0.1639533551     -0.7981886171      1.8804277171
 C     -0.7723533928     -1.8968167988      2.0345660391
 C     -2.0762960404     -1.4738679545      1.2889751541
 N     -1.6998213276     -1.1327364423     -0.1030919115
 H      1.1031994682     -1.1262529860      2.1604736793
 H     -0.0018506865     -0.0749542262      2.6148369390
 H     -0.4422080576     -2.8541647473      1.6319387686
 H     -1.0396775042     -2.0541166251      3.1408946157
 H     -2.4772196647     -0.5971496989      1.7808269200
 H     -2.7908513817     -2.3843194135      1.3772581632
 H     -1.5242533203     -1.9799085253     -0.6385659938
 H     -2.5163293826     -0.8279722655     -0.6012428469
 O     -0.0926957293      0.5687568627     -1.8680904583
 H     -0.9468330864      0.7167459942     -2.4756065772
 H      0.5329657156      1.2122432835     -2.1876509124
 O      1.5421044693      1.3507696518      0.2180613778
 H      2.0356498929      1.5563874913     -0.6174900709
 H      2.2463450753      0.9617489358      0.8017314412
 O      1.5605760966     -1.3279781710     -0.7547455399
 H      1.7237559133     -1.0000446964     -1.6072591817
 H      2.4101331277     -1.4263117621     -0.3083297536
 O     -1.1459683934      1.5729255428      0.6311543047
 H     -2.0089782509      1.7615384924      0.2202412281
 H     -0.6086462523      2.3394792550      0.6987893379
 O      4.3912324928     -1.8128299721      0.2846006817
 H      4.1142191392     -2.6067596149      0.7260811671
 H      5.3325176907     -1.6665322674      0.4640127950
 O     -1.9850949047      1.0131905501     -3.6221719758
 H     -2.6039511591      0.3042739693     -3.5914136536
 H     -1.6455796580      1.1169541634     -4.4803502271
 O     -3.5357620304      2.3694017727     -0.4632266115
 H     -3.8284073755      2.6645779971      0.3744878306
 H     -3.4322410730      3.0739559357     -1.0970450053
 O      2.9556329707     -0.1360720092      2.1635391102
 H      3.5832210300     -0.5803811906      1.5648581114
 H      3.5014360140      0.2349539810      2.8619964107
 O     -4.0951121413     -0.3778660463     -1.5531747071
 H     -4.8652928627     -0.7362742611     -1.9277180011
 H     -4.3963112585      0.5300085905     -1.3653626186
 O      2.0935294104      2.0016683209     -2.6972428901
 H      1.7639398009      2.8770823926     -2.9397720220
 H      2.6878749213      1.7303395066     -3.3731408295
43
# ORCA AIMD Position Step 147, t=73.50 fs, E_Pot=-170978.02152809 kJ mol^-1, Unit is Angstrom
Zn     -0.0262952010     -0.0581548935      0.0411832800
 N      0.1657212360     -0.8021105902      1.8825599634
 C     -0.7752287233     -1.8967990506      2.0353420149
 C     -2.0787240460     -1.4744174074      1.2908192118
 N     -1.6989109574     -1.1321784266     -0.1023479661
 H      1.1057688964     -1.1220089137      2.1572721894
 H     -0.0014258053     -0.0839684886      2.6056888185
 H     -0.4337399652     -2.8524358920      1.6455860166
 H     -1.0382371730     -2.0410791996      3.1311179600
 H     -2.4796055093     -0.5992930191      1.7673112000
 H     -2.7880464095     -2.3750698630      1.3685399826
 H     -1.5250647235     -1.9905664528     -0.6381055840
 H     -2.5162857924     -0.8306267609     -0.5980241765
 O     -0.0934414803      0.5692117320     -1.8677249430
 H     -0.9421509989      0.7103624755     -2.4758922790
 H      0.5310313815      1.2127797530     -2.1967371522
 O      1.5402046361      1.3497000958      0.2182998332
 H      2.0452090316      1.5560925204     -0.6266980992
 H      2.2480613944      0.9665770388      0.8037856103
 O      1.5627157845     -1.3285100582     -0.7533509312
 H      1.7285042174     -0.9985727930     -1.6063890127
 H      2.4051593047     -1.4347034607     -0.3037744899
 O     -1.1458796046      1.5736927088      0.6321198121
 H     -2.0088622697      1.7579014180      0.2250424247
 H     -0.6056322121      2.3445112452      0.6997301535
 O      4.3941387402     -1.8113292111      0.2841799496
 H      4.1148114484     -2.6031333866      0.7368251414
 H      5.3295155635     -1.6642627719      0.4761349736
 O     -1.9865716818      1.0170072093     -3.6235037896
 H     -2.5931433592      0.3029497369     -3.5909430274
 H     -1.6387238540      1.1260226006     -4.4946987509
 O     -3.5360824508      2.3676635559     -0.4611931305
 H     -3.8306061740      2.6661145479      0.3844832485
 H     -3.4364310890      3.0708704401     -1.1030900183
 O      2.9556275224     -0.1368647469      2.1642639112
 H      3.5812209300     -0.5812428258      1.5630988831
 H      3.5026517360      0.2352966630      2.8567233239
 O     -4.0973355321     -0.3777765356     -1.5534015953
 H     -4.8735290777     -0.7367169330     -1.9430396793
 H     -4.3902800590      0.5259776023     -1.3675574928
 O      2.0933458596      1.9993088164     -2.6994965610
 H      1.7699157545      2.8772344750     -2.9427421895
 H      2.6949540614      1.7196347278     -3.3840578127
43
# ORCA AIMD Position Step 148, t=74.00 fs, E_Pot=-170985.21620454 kJ mol^-1, Unit is Angstrom
Zn     -0.0262156740     -0.0572457970      0.0405971872
 N      0.1676951785     -0.8060661178      1.8848486507
 C     -0.7784456152     -1.8966878944      2.0363544494
 C     -2.0810792246     -1.4753516819      1.2926165129
 N     -1.6979838943     -1.1318281584     -0.1015246135
 H      1.1077092435     -1.1174530319      2.1532099751
 H     -0.0016028613     -0.0939322424      2.5950881816
 H     -0.4244477491     -2.8501831116      1.6590209158
 H     -1.0362458150     -2.0280693710      3.1187734987
 H     -2.4827380012     -0.6009629313      1.7538800557
 H     -2.7837306270     -2.3624307159      1.3591324488
 H     -1.5250715205     -2.0012821305     -0.6364966005
 H     -2.5179417128     -0.8313605986     -0.5951811085
 O     -0.0944850180      0.5696225742     -1.8674617804
 H     -0.9340149859      0.7034698985     -2.4738394305
 H      0.5304844119      1.2141393298     -2.2064003314
 O      1.5385221163      1.3485825691      0.2184358396
 H      2.0529729144      1.5553917324     -0.6336204777
 H      2.2481008563      0.9722304369      0.8054393794
 O      1.5647559445     -1.3291219841     -0.7516880643
 H      1.7342622125     -0.9959449837     -1.6093897468
 H      2.4008700864     -1.4431739856     -0.2992237847
 O     -1.1458186638      1.5742967019      0.6331434824
 H     -2.0088785242      1.7549460453      0.2292157007
 H     -0.6020331414      2.3517641546      0.7005476267
 O      4.3970887873     -1.8097158096      0.2837782456
 H      4.1155458548     -2.6005780209      0.7480109913
 H      5.3259576983     -1.6623509028      0.4880165186
 O     -1.9880100477      1.0210089848     -3.6247272136
 H     -2.5840890548      0.2994028300     -3.5906225446
 H     -1.6312574577      1.1350961871     -4.5110824242
 O     -3.5363508693      2.3657681586     -0.4592332862
 H     -3.8337251790      2.6691624134      0.3958716658
 H     -3.4408574688      3.0684431789     -1.1088032170
 O      2.9556713038     -0.1376746838      2.1649538056
 H      3.5788214474     -0.5822846160      1.5611342498
 H      3.5037235873      0.2358949458      2.8517884428
 O     -4.0995396004     -0.3775748668     -1.5536065481
 H     -4.8836758303     -0.7392208995     -1.9595951401
 H     -4.3829431026      0.5222199871     -1.3691465432
 O      2.0931128744      1.9969784437     -2.7017384990
 H      1.7763389303      2.8770035674     -2.9455992311
 H      2.7026022222      1.7085925696     -3.3956505032
43
# ORCA AIMD Position Step 149, t=74.50 fs, E_Pot=-170987.87345549 kJ mol^-1, Unit is Angstrom
Zn     -0.0261329975     -0.0563336540      0.0400081193
 N      0.1698165227     -0.8099874019      1.8871662202
 C     -0.7818989801     -1.8964692381      2.0375443500
 C     -2.0832545412     -1.4766344703      1.2942761233
 N     -1.6970570076     -1.1317391037     -0.1006706226
 H      1.1092523898     -1.1129218380      2.1485097240
 H     -0.0025397655     -0.1038234795      2.5840673329
 H     -0.4146789071     -2.8476547888      1.6717700816
 H     -1.0340200199     -2.0155788996      3.1050281033
 H     -2.4867003525     -0.6016719965      1.7412374927
 H     -2.7784448189     -2.3473316180      1.3494061899
 H     -1.5244078772     -2.0111311684     -0.6334775149
 H     -2.5211401981     -0.8302301903     -0.5927880795
 O     -0.0957651535      0.5699958461     -1.8673076439
 H     -0.9229643302      0.6962998500     -2.4696752765
 H      0.5311098515      1.2159928629     -2.2162344641
 O      1.5371210334      1.3474538673      0.2184269453
 H      2.0583444888      1.5541500277     -0.6375003006
 H      2.2464518711      0.9785471434      0.8066566956
 O      1.5666367156     -1.3297801458     -0.7498502945
 H      1.7408085154     -0.9925058040     -1.6154188100
 H      2.3976579774     -1.4515520391     -0.2946752385
 O     -1.1457458887      1.5747638396      0.6342116990
 H     -2.0091524548      1.7528142038      0.2325970151
 H     -0.5984499895      2.3603538197      0.7011441684
 O      4.3999849385     -1.8080638177      0.2834213266
 H      4.1165119089     -2.5986732184      0.7590958358
 H      5.3223252204     -1.6607282964      0.4994257461
 O     -1.9893259175      1.0251278535     -3.6259281601
 H     -2.5770127420      0.2936296094     -3.5905466321
 H     -1.6241525280      1.1436828426     -4.5272570868
 O     -3.5365830426      2.3638015173     -0.4573403498
 H     -3.8372862680      2.6732883028      0.4072104294
 H     -3.4454851460      3.0664042458     -1.1136773973
 O      2.9557523204     -0.1384916723      2.1655781185
 H      3.5760705590     -0.5834693613      1.5590073821
 H      3.5048103773      0.2368621792      2.8475452783
 O     -4.1017448111     -0.3773507921     -1.5538366681
 H     -4.8941009262     -0.7429536872     -1.9762786861
 H     -4.3747544854      0.5193986331     -1.3699951586
 O      2.0928953475      1.9946997887     -2.7039850404
 H      1.7830877732      2.8763723442     -2.9482980358
 H      2.7096659266      1.6979484082     -3.4065648543
43
# ORCA AIMD Position Step 150, t=75.00 fs, E_Pot=-170985.70585042 kJ mol^-1, Unit is Angstrom
Zn     -0.0260455962     -0.0554065077      0.0394085312
 N      0.1720958267     -0.8139553658      1.8894614184
 C     -0.7855954296     -1.8961272575      2.0388732403
 C     -2.0852216072     -1.4782405586      1.2957771565
 N     -1.6961260285     -1.1319394625     -0.0998058785
 H      1.1107571956     -1.1085963185      2.1432630323
 H     -0.0044251102     -0.1128805631      2.5733539552
 H     -0.4044557933     -2.8449903341      1.6838584022
 H     -1.0318469793     -2.0036346732      3.0907834612
 H     -2.4916369680     -0.6010842747      1.7295398345
 H     -2.7727159688     -2.3304289374      1.3393926525
 H     -1.5231957388     -2.0196844742     -0.6288131949
 H     -2.5256167497     -0.8273915003     -0.5907248091
 O     -0.0972440891      0.5703561112     -1.8672551404
 H     -0.9094091166      0.6888461107     -2.4636623396
 H      0.5326199566      1.2179925462     -2.2261397110
 O      1.5359902282      1.3463094141      0.2182457217
 H      2.0611519147      1.5522705019     -0.6380712663
 H      2.2431966368      0.9855222449      0.8075449531
 O      1.5683815314     -1.3304650773     -0.7478880820
 H      1.7480624656     -0.9886369206     -1.6234112860
 H      2.3956707301     -1.4599611007     -0.2900166604
 O     -1.1456206134      1.5751470876      0.6353463421
 H     -2.0097534606      1.7515243783      0.2351980309
 H     -0.5953897036      2.3695933225      0.7014495214
 O      4.4028346664     -1.8063901222      0.2831218955
 H      4.1178339336     -2.5968915115      0.7699119972
 H      5.3189822668     -1.6592530883      0.5105679840
 O     -1.9905097007      1.0294197821     -3.6272195454
 H     -2.5715579411      0.2858082779     -3.5908092442
 H     -1.6180140823      1.1516411410     -4.5418428901
 O     -3.5368038938      2.3617791712     -0.4554380681
 H     -3.8409439052      2.6781711354      0.4175203219
 H     -3.4504278983      3.0644226430     -1.1174419609
 O      2.9558619067     -0.1393330543      2.1661343923
 H      3.5729374836     -0.5847984270      1.5566913994
 H      3.5060759628      0.2383045318      2.8441140103
 O     -4.1040462839     -0.3771819341     -1.5541455401
 H     -4.9036287374     -0.7472022072     -1.9925785498
 H     -4.3658900572      0.5179954112     -1.3700455638
 O      2.0927408383      1.9924123927     -2.7063222336
 H      1.7902550232      2.8753621073     -2.9509067957
 H      2.7154220205      1.6879744413     -3.4160365583
43
# ORCA AIMD Position Step 151, t=75.50 fs, E_Pot=-170979.75196401 kJ mol^-1, Unit is Angstrom
Zn     -0.0259527815     -0.0544618529      0.0387969794
 N      0.1745202876     -0.8180109303      1.8916587388
 C     -0.7895017007     -1.8956515115      2.0402760961
 C     -2.0869229619     -1.4801052350      1.2970879369
 N     -1.6952065969     -1.1324461247     -0.0989577515
 H      1.1125915853     -1.1047007065      2.1376190772
 H     -0.0074426934     -0.1202227557      2.5637856057
 H     -0.3939174682     -2.8423177937      1.6951936988
 H     -1.0300716372     -1.9923958537      3.0772375652
 H     -2.4975813273     -0.5989915843      1.7189973662
 H     -2.7672752570     -2.3127178295      1.3292204879
 H     -1.5215443886     -2.0265365804     -0.6223882545
 H     -2.5309465269     -0.8230640818     -0.5888268642
 O     -0.0988567778      0.5707241994     -1.8672907048
 H     -0.8940755936      0.6811909263     -2.4562474741
 H      0.5347096647      1.2197493523     -2.2358909695
 O      1.5351202218      1.3451557605      0.2178732520
 H      2.0612941940      1.5497238681     -0.6352364726
 H      2.2385217072      0.9930411678      0.8082819471
 O      1.5700026627     -1.3311479623     -0.7458746423
 H      1.7558431568     -0.9848097110     -1.6321148651
 H      2.3949811403     -1.4684202688     -0.2852491371
 O     -1.1454087939      1.5754935558      0.6365559763
 H     -2.0106840650      1.7510998460      0.2370211226
 H     -0.5933676120      2.3787369971      0.7013940343
 O      4.4056173425     -1.8047262491      0.2828966168
 H      4.1196160241     -2.5947618472      0.7801767645
 H      5.3163016524     -1.6578029260      0.5215256677
 O     -1.9915593173      1.0338785894     -3.6286801434
 H     -2.5672459660      0.2764443311     -3.5915092575
 H     -1.6133876806      1.1587801663     -4.5536366131
 O     -3.5370333356      2.3597313606     -0.4534761185
 H     -3.8443720850      2.6834863211      0.4258600935
 H     -3.4557368466      3.0622411481     -1.1198331413
 O      2.9559935302     -0.1402050550      2.1666180875
 H      3.5694284259     -0.5862638530      1.5541843166
 H      3.5076207532      0.2402769262      2.8415838606
 O     -4.1065049270     -0.3771353175     -1.5545780014
 H     -4.9111876358     -0.7513057151     -2.0078803753
 H     -4.3565713779      0.5184099058     -1.3692604789
 O      2.0926881936      1.9900824436     -2.7087991785
 H      1.7978461541      2.8740443939     -2.9534728576
 H      2.7192608820      1.6789684610     -3.4233952990
43
# ORCA AIMD Position Step 152, t=76.00 fs, E_Pot=-170972.25952143 kJ mol^-1, Unit is Angstrom
Zn     -0.0258553514     -0.0535114190      0.0381812464
 N      0.1770380934     -0.8221271592      1.8936596474
 C     -0.7935207467     -1.8950444304      2.0416569945
 C     -2.0882745582     -1.4821063355      1.2981672154
 N     -1.6943348563     -1.1332529836     -0.0981622574
 H      1.1150784618     -1.1014931006      2.1318180880
 H     -0.0116897652     -0.1249835931      2.5562104417
 H     -0.3833835314     -2.8397617873      1.7055442937
 H     -1.0290774189     -1.9821752450      3.0658676170
 H     -2.5043848356     -0.5953998950      1.7098786353
 H     -2.7630664952     -2.2956213569      1.3191617216
 H     -1.5195705066     -2.0313387363     -0.6142941871
 H     -2.5365383902     -0.8175825156     -0.5869169880
 O     -0.1004982504      0.5711129821     -1.8673878460
 H     -0.8781821646      0.6735482794     -2.4481821195
 H      0.5370568534      1.2208674102     -2.2451169052
 O      1.5344989223      1.3440158029      0.2173066479
 H      2.0588259640      1.5465787689     -0.6291851013
 H      2.2327813185      1.0008346719      0.8091173322
 O      1.5714968408     -1.3317918311     -0.7439065786
 H      1.7638455214     -0.9815386864     -1.6401863279
 H      2.3955411378     -1.4768018478     -0.2805138004
 O     -1.1450894488      1.5758407886      0.6378276195
 H     -2.0118645559      1.7515399908      0.2380771720
 H     -0.5928410582      2.3870000493      0.7009265499
 O      4.4082773190     -1.8031230049      0.2827639753
 H      4.1219066329     -2.5919266490      0.7894900187
 H      5.3146170000     -1.6562863402      0.5322039001
 O     -1.9924748442      1.0384154522     -3.6303437560
 H     -2.5635377993      0.2663813719     -3.5927261563
 H     -1.6107288285      1.1648611832     -4.5616379525
 O     -3.5372841830      2.3577113177     -0.4514423672
 H     -3.8472709859      2.6888795903      0.4313967458
 H     -3.4613629278      3.0597065185     -1.1206465592
 O      2.9561420889     -0.1410974145      2.1670234939
 H      3.5656142575     -0.5878337671      1.5515251600
 H      3.5094555659      0.2427488462      2.8399832593
 O     -4.1091302544     -0.3772586567     -1.5551614351
 H     -4.9158760267     -0.7546595775     -2.0214628507
 H     -4.3471052381      0.5208366754     -1.3676649555
 O      2.0927644936      1.9877152043     -2.7114127922
 H      1.8057336946      2.8725507154     -2.9560101075
 H      2.7207304218      1.6712574230     -3.4280995533
43
# ORCA AIMD Position Step 153, t=76.50 fs, E_Pot=-170965.89057156 kJ mol^-1, Unit is Angstrom
Zn     -0.0257532433     -0.0525568496      0.0375625995
 N      0.1796207977     -0.8263045956      1.8954114716
 C     -0.7975951041     -1.8943106558      2.0429371359
 C     -2.0892177511     -1.4841201684      1.2990001296
 N     -1.6935393554     -1.1343431249     -0.0974389806
 H      1.1184873467     -1.0991409690      2.1260355197
 H     -0.0172031105     -0.1266707643      2.5510881188
 H     -0.3730804999     -2.8373702115      1.7148418061
 H     -1.0291967901     -1.9731291834      3.0579124519
 H     -2.5118671567     -0.5904898616      1.7022321348
 H     -2.7610192880     -2.2804184642      1.3093587207
 H     -1.5173517416     -2.0340018569     -0.6046732024
 H     -2.5418370375     -0.8112646997     -0.5847919715
 O     -0.1020682169      0.5715346988     -1.8675064138
 H     -0.8630295042      0.6660640998     -2.4403352244
 H      0.5394032352      1.2210294019     -2.2535767013
 O      1.5340888791      1.3428980264      0.2165519838
 H      2.0539819950      1.5429405577     -0.6203419395
 H      2.2263599082      1.0086848385      0.8103732680
 O      1.5728856124     -1.3323729490     -0.7420434531
 H      1.7718646305     -0.9792238281     -1.6465616611
 H      2.3971672593     -1.4850505310     -0.2759585823
 O     -1.1446517068      1.5762222536      0.6391574787
 H     -2.0131647799      1.7528036373      0.2384331589
 H     -0.5941105668      2.3938579321      0.7000204929
 O      4.4107997513     -1.8016045572      0.2827370936
 H      4.1247307557     -2.5881253141      0.7976311354
 H      5.3141045504     -1.6546146512      0.5426005135
 O     -1.9932798520      1.0429806672     -3.6322364373
 H     -2.5598230981      0.2564392594     -3.5945239877
 H     -1.6102683793      1.1697936390     -4.5653687314
 O     -3.5375672250      2.3557404329     -0.4493140242
 H     -3.8494699995      2.6941203987      0.4336748949
 H     -3.4672913938      3.0567293160     -1.1198260719
 O      2.9563074224     -0.1420056150      2.1673566042
 H      3.5615405785     -0.5894896254      1.5487305540
 H      3.5115372743      0.2456505144      2.8392092815
 O     -4.1119423033     -0.3775739613     -1.5559138301
 H     -4.9171971769     -0.7568442087     -2.0329309895
 H     -4.3376303454      0.5252150648     -1.3653368398
 O      2.0929825556      1.9852965525     -2.7141709303
 H      1.8138559913      2.8710256273     -2.9585602382
 H      2.7196527034      1.6649510504     -3.4299452894
43
# ORCA AIMD Position Step 154, t=77.00 fs, E_Pot=-170962.80596950 kJ mol^-1, Unit is Angstrom
Zn     -0.0256450667     -0.0515865728      0.0369337541
 N      0.1822742510     -0.8305798160      1.8969126426
 C     -0.8017261092     -1.8934505807      2.0440712642
 C     -2.0897180202     -1.4860452758      1.2995919164
 N     -1.6928373268     -1.1357032769     -0.0967888835
 H      1.1230272088     -1.0977264724      2.1203529532
 H     -0.0239817307     -0.1251837065      2.5484572839
 H     -0.3631104448     -2.8351145889      1.7231766739
 H     -1.0307003882     -1.9652560317      3.0542602227
 H     -2.5198806031     -0.5845307457      1.6959272006
 H     -2.7619770628     -2.2680801942      1.2997946126
 H     -1.5149063197     -2.0346398753     -0.5936299011
 H     -2.5463926287     -0.8043364848     -0.5822409136
 O     -0.1034812777      0.5720026037     -1.8675965198
 H     -0.8498771161      0.6587859605     -2.4336136680
 H      0.5415792392      1.2199896600     -2.2611789996
 O      1.5338352629      1.3417924174      0.2156178523
 H      2.0470872190      1.5389257539     -0.6092469832
 H      2.2195900309      1.0164716450      0.8124309281
 O      1.5742131948     -1.3328824483     -0.7403014637
 H      1.7798380186     -0.9781425764     -1.6505049786
 H      2.3996122277     -1.4932085848     -0.2717091716
 O     -1.1440896851      1.5766673619      0.6405574416
 H     -2.0144304619      1.7548439692      0.2381813866
 H     -0.5973622633      2.3990537796      0.6986580632
 O      4.4132157118     -1.8001648514      0.2828265493
 H      4.1281109397     -2.5831710383      0.8045642244
 H      5.3147957478     -1.6526982872      0.5528201308
 O     -1.9940143256      1.0475861411     -3.6343910654
 H     -2.5555017933      0.2472647539     -3.5969684780
 H     -1.6120856906      1.1736134138     -4.5647289573
 O     -3.5378927828      2.3538028303     -0.4470482724
 H     -3.8509167265      2.6991222234      0.4325284923
 H     -3.4735723194      3.0532661056     -1.1174143896
 O      2.9564949246     -0.1429346904      2.1676326690
 H      3.5572043466     -0.5912342279      1.5457805369
 H      3.5137931886      0.2489047000      2.8390692583
 O     -4.1149867151     -0.3780841823     -1.5568509058
 H     -4.9149473115     -0.7576009669     -2.0421974312
 H     -4.3280866983      0.5313053660     -1.3623723680
 O      2.0933462082      1.9827850707     -2.7171064001
 H      1.8222575742      2.8696018691     -2.9611949956
 H      2.7160336558      1.6599662443     -3.4289741998
43
# ORCA AIMD Position Step 155, t=77.50 fs, E_Pot=-170964.03458567 kJ mol^-1, Unit is Angstrom
Zn     -0.0255283669     -0.0505797476      0.0362814368
 N      0.1850288962     -0.8350072031      1.8981970810
 C     -0.8059590844     -1.8924592665      2.0450495163
 C     -2.0897551079     -1.4878058132      1.2999536498
 N     -1.6922398804     -1.1373283785     -0.0961990936
 H      1.1288421035     -1.0972856195      2.1147863790
 H     -0.0319838408     -0.1207268424      2.5480298061
 H     -0.3535120412     -2.8329137856      1.7307193704
 H     -1.0338102906     -1.9584753891      3.0554815033
 H     -2.5283101992     -0.5778339901      1.6907571187
 H     -2.7666737126     -2.2592793747      1.2903520847
 H     -1.5121934145     -2.0334926322     -0.5812280969
 H     -2.5498372633     -0.7969311115     -0.5790563926
 O     -0.1046627323      0.5725314290     -1.8676026915
 H     -0.8399483521      0.6516897131     -2.4289411795
 H      0.5434864189      1.2175349635     -2.2679180089
 O      1.5336738050      1.3406746463      0.2145164299
 H      2.0385311582      1.5346724462     -0.5965543759
 H      2.2127368717      1.0241487826      0.8157256914
 O      1.5755358772     -1.3333210680     -0.7386671425
 H      1.7878095493     -0.9785001615     -1.6515030259
 H      2.4026143374     -1.5013787133     -0.2678816045
 O     -1.1433994356      1.5772014816      0.6420516807
 H     -2.0154916678      1.7576305884      0.2374104741
 H     -0.6027282428      2.4025130311      0.6968179519
 O      4.4155869297     -1.7987772325      0.2830444803
 H      4.1320705952     -2.5769324099      0.8103644792
 H      5.3166197531     -1.6504462407      0.5630136922
 O     -1.9947258426      1.0522888037     -3.6368480153
 H     -2.5500201691      0.2393460144     -3.6001381057
 H     -1.6161905532      1.1764225069     -4.5598216242
 O     -3.5382708102      2.3518557590     -0.4445871586
 H     -3.8516402107      2.7039115819      0.4279479483
 H     -3.4803060539      3.0493154368     -1.1135040775
 O      2.9567146453     -0.1438962762      2.1678714307
 H      3.5525636325     -0.5930866202      1.5426261537
 H      3.5161317357      0.2524349187      2.8393254767
 O     -4.1183292709     -0.3787807455     -1.5579890868
 H     -4.9090725402     -0.7567657669     -2.0493540851
 H     -4.3182752748      0.5387570788     -1.3588708610
 O      2.0938540051      1.9801214501     -2.7202701075
 H      1.8310652623      2.8683979818     -2.9640027600
 H      2.7099821730      1.6560977431     -3.4253700498
43
# ORCA AIMD Position Step 156, t=78.00 fs, E_Pot=-170969.03268104 kJ mol^-1, Unit is Angstrom
Zn     -0.0254059632     -0.0495610484      0.0356218883
 N      0.1877900603     -0.8394206733      1.8992605448
 C     -0.8101538265     -1.8913800496      2.0458528837
 C     -2.0893310607     -1.4892695560      1.3000802130
 N     -1.6917836933     -1.1391324630     -0.0956742875
 H      1.1356820353     -1.0978336291      2.1095909602
 H     -0.0406901161     -0.1140116905      2.5492647462
 H     -0.3447858209     -2.8307630555      1.7373077612
 H     -1.0385097858     -1.9529980399      3.0616629062
 H     -2.5366295276     -0.5710852934      1.6867384695
 H     -2.7753463760     -2.2547319478      1.2813399895
 H     -1.5092590847     -2.0309986054     -0.5681721598
 H     -2.5517082980     -0.7894917366     -0.5752159638
 O     -0.1054971147      0.5731101238     -1.8674732292
 H     -0.8347617277      0.6450462391     -2.4273565101
 H      0.5449875577      1.2136155563     -2.2735084292
 O      1.5335397898      1.3395652568      0.2133279806
 H      2.0292597937      1.5305770360     -0.5837726904
 H      2.2063397661      1.0313427050      0.8205342721
 O      1.5768486131     -1.3336747881     -0.7371880178
 H      1.7954949274     -0.9804134845     -1.6492000174
 H      2.4057590533     -1.5092847198     -0.2647738220
 O     -1.1426157839      1.5778167269      0.6435956854
 H     -2.0161190588      1.7609971544      0.2362428382
 H     -0.6099925032      2.4041584533      0.6945753193
 O      4.4178762530     -1.7974700139      0.2833926309
 H      4.1364159700     -2.5696743782      0.8149063941
 H      5.3193162294     -1.6478856540      0.5728218489
 O     -1.9954309156      1.0569358488     -3.6395197271
 H     -2.5431818967      0.2334186093     -3.6039494736
 H     -1.6222863087      1.1782429235     -4.5512498210
 O     -3.5386900705      2.3499355317     -0.4419917711
 H     -3.8517137022      2.7083702888      0.4203349178
 H     -3.4872780718      3.0451300940     -1.1084515029
 O      2.9569682725     -0.1448569421      2.1680829188
 H      3.5477907624     -0.5949805909      1.5393615961
 H      3.5183314304      0.2559834108      2.8397002662
 O     -4.1218720254     -0.3796085754     -1.5592831630
 H     -4.8999968271     -0.7543153127     -2.0542956471
 H     -4.3084169885      0.5467499738     -1.3551186494
 O      2.0944703191      1.9773749827     -2.7235578034
 H      1.8400125541      2.8675735843     -2.9669235984
 H      2.7020578599      1.6532152567     -3.4196762485
43
# ORCA AIMD Position Step 157, t=78.50 fs, E_Pot=-170975.56569443 kJ mol^-1, Unit is Angstrom
Zn     -0.0252790252     -0.0485395079      0.0349612135
 N      0.1905081297     -0.8437139100      1.9001405308
 C     -0.8142464764     -1.8902459930      2.0465223247
 C     -2.0884986376     -1.4903804951      1.2999798947
 N     -1.6914869522     -1.1410421626     -0.0951980340
 H      1.1432232263     -1.0993020443      2.1049030480
 H     -0.0495967277     -0.1059614174      2.5513893185
 H     -0.3372587058     -2.8286102021      1.7429455438
 H     -1.0446608125     -1.9488583186      3.0722472430
 H     -2.5444484971     -0.5648835491      1.6837642398
 H     -2.7877507472     -2.2543821989      1.2729108333
 H     -1.5060797808     -2.0277685119     -0.5550618250
 H     -2.5517479714     -0.7823093000     -0.5707243260
 O     -0.1059348164      0.5737333056     -1.8671808261
 H     -0.8350106646      0.6389479115     -2.4293588309
 H      0.5460393405      1.2082591765     -2.2778541590
 O      1.5333619661      1.3384601107      0.2121372785
 H      2.0202536036      1.5270161315     -0.5724309095
 H      2.2007213495      1.0378683989      0.8270547966
 O      1.5781638679     -1.3339450455     -0.7358668757
 H      1.8027855503     -0.9838634996     -1.6436075361
 H      2.4086937647     -1.5167917588     -0.2625757563
 O     -1.1417726924      1.5785006192      0.6451663245
 H     -2.0161295583      1.7647907317      0.2347957538
 H     -0.6188380504      2.4042055620      0.6920046507
 O      4.4200941075     -1.7962386314      0.2838694356
 H      4.1409647369     -2.5617140767      0.8182754843
 H      5.3225434917     -1.6450333239      0.5820236839
 O     -1.9961588213      1.0614568111     -3.6423297122
 H     -2.5348863503      0.2298606700     -3.6083227373
 H     -1.6299204033      1.1792372749     -4.5400089686
 O     -3.5391392206      2.3480376073     -0.4392982100
 H     -3.8513283970      2.7125502222      0.4103523574
 H     -3.4943642296      3.0409702765     -1.1026722020
 O      2.9572597353     -0.1457982639      2.1682813133
 H      3.5429915397     -0.5968765302      1.5360354214
 H      3.5202140213      0.2593449442      2.8399178282
 O     -4.1255469850     -0.3805076759     -1.5606889965
 H     -4.8884163579     -0.7503972324     -2.0572760832
 H     -4.2985762171      0.5545114322     -1.3513676502
 O      2.0951512128      1.9745854590     -2.7268981418
 H      1.8489771174      2.8672188702     -2.9699207146
 H      2.6929872437      1.6509784537     -3.4126743475
43
# ORCA AIMD Position Step 158, t=79.00 fs, E_Pot=-170980.42911415 kJ mol^-1, Unit is Angstrom
Zn     -0.0251479886     -0.0475176278      0.0343012813
 N      0.1931551238     -0.8478099121      1.9008881800
 C     -0.8182089250     -1.8890843736      2.0471363902
 C     -2.0873458067     -1.4911370209      1.2996627912
 N     -1.6913569038     -1.1429907784     -0.0947420242
 H      1.1510755156     -1.1015815482      2.1008005240
 H     -0.0582173795     -0.0975318279      2.5535945848
 H     -0.3311766512     -2.8263932758      1.7476996893
 H     -1.0520378448     -1.9460176271      3.0862523998
 H     -2.5514629841     -0.5597407940      1.6816989578
 H     -2.8032271060     -2.2576293667      1.2651693987
 H     -1.5025886206     -2.0245079056     -0.5424509803
 H     -2.5498510435     -0.7755768192     -0.5656315155
 O     -0.1059863398      0.5743976507     -1.8667298043
 H     -0.8405532280      0.6333855343     -2.4348520897
 H      0.5466648664      1.2015565998     -2.2809633316
 O      1.5330747676      1.3373425438      0.2110334086
 H      2.0124754553      1.5243446244     -0.5640058291
 H      2.1960154819      1.0436668984      0.8353557366
 O      1.5794960203     -1.3341420011     -0.7346820508
 H      1.8096752361     -0.9887275361     -1.6350226168
 H      2.4111433517     -1.5238335244     -0.2613981102
 O     -1.1409049647      1.5792332589      0.6467500749
 H     -2.0153894416      1.7688680411      0.2331678806
 H     -0.6288587173      2.4030749638      0.6891827518
 O      4.4222703545     -1.7950623195      0.2844708885
 H      4.1455287725     -2.5534317780      0.8206737300
 H      5.3259357663     -1.6419045660      0.5904455646
 O     -1.9969440636      1.0658200596     -3.6451949282
 H     -2.5251547837      0.2287891085     -3.6131702398
 H     -1.6384972338      1.1796540734     -4.5274396709
 O     -3.5396044585      2.3461374447     -0.4365376124
 H     -3.8507623316      2.7166214470      0.3988615508
 H     -3.5014790104      3.0371033322     -1.0966137239
 O      2.9575925671     -0.1467091889      2.1684798166
 H      3.5382399317     -0.5987460109      1.5326762747
 H      3.5216459698      0.2623570882      2.8397409923
 O     -4.1292891072     -0.3814158732     -1.5621575154
 H     -4.8752700240     -0.7453044391     -2.0587996599
 H     -4.2887687086      0.5613610383     -1.3478373662
 O      2.0958443224      1.9717859467     -2.7302283382
 H      1.8579069757      2.8673608103     -2.9729571063
 H      2.6836364369      1.6489129394     -3.4053260099
43
# ORCA AIMD Position Step 159, t=79.50 fs, E_Pot=-170981.00927913 kJ mol^-1, Unit is Angstrom
Zn     -0.0250134987     -0.0464995833      0.0336450179
 N      0.1957032732     -0.8516339031      1.9015513684
 C     -0.8220132548     -1.8879232351      2.0477899992
 C     -2.0859872392     -1.4915707301      1.2991387535
 N     -1.6913923167     -1.1449097231     -0.0942735071
 H      1.1587759551     -1.1045341833      2.0973472865
 H     -0.0660663833     -0.0896341486      2.5551404138
 H     -0.3267599504     -2.8240714846      1.7516392134
 H     -1.0603302056     -1.9444166305      3.1024037216
 H     -2.5574075980     -0.5560946257      1.6804220217
 H     -2.8207532086     -2.2635215088      1.2582463601
 H     -1.4987124329     -2.0219599992     -0.5309068291
 H     -2.5460561869     -0.7694414321     -0.5600635022
 O     -0.1057135113      0.5750959879     -1.8661560157
 H     -0.8504868511      0.6283256973     -2.4431772206
 H      0.5469427458      1.1936905060     -2.2829056443
 O      1.5326305891      1.3361960248      0.2101043240
 H      2.0067782557      1.5228632653     -0.5597545612
 H      2.1922059577      1.0487537699      0.8453042300
 O      1.5808488451     -1.3342811044     -0.7336004644
 H      1.8162035446     -0.9947651608     -1.6240434941
 H      2.4129102184     -1.5303565793     -0.2612822829
 O     -1.1400520507      1.5799836437      0.6483313953
 H     -2.0138246208      1.7730745271      0.2314417115
 H     -0.6395251462      2.4013521010      0.6862014453
 O      4.4244317508     -1.7939170783      0.2851873091
 H      4.1498923055     -2.5452965820      0.8223649340
 H      5.3291338454     -1.6385281004      0.5979067573
 O     -1.9978195486      1.0699965507     -3.6480070026
 H     -2.5141792707      0.2300964031     -3.6183700670
 H     -1.6472529852      1.1798035451     -4.5152459767
 O     -3.5400668629      2.3442090491     -0.4337562889
 H     -3.8503618567      2.7208266439      0.3869261151
 H     -3.5085247915      3.0337995902     -1.0907518046
 O      2.9579668691     -0.1475793231      2.1686874275
 H      3.5336129381     -0.6005563175      1.5293185410
 H      3.5225391861      0.2648879425      2.8389933920
 O     -4.1330087975     -0.3822671328     -1.5636255746
 H     -4.8617874277     -0.7394881232     -2.0595794197
 H     -4.2790504058      0.5667182233     -1.3447269173
 O      2.0964881220      1.9690229007     -2.7334721500
 H      1.8667498480      2.8679648720     -2.9759746139
 H      2.6750054386      1.6464701294     -3.3987436744
43
# ORCA AIMD Position Step 160, t=80.00 fs, E_Pot=-170976.46216034 kJ mol^-1, Unit is Angstrom
Zn     -0.0248711107     -0.0454518791      0.0329710469
 N      0.1982216632     -0.8552615207      1.9021945054
 C     -0.8257744635     -1.8867452537      2.0486067790
 C     -2.0844951144     -1.4917454674      1.2983943221
 N     -1.6915858603     -1.1468087835     -0.0937404430
 H      1.1661288333     -1.1081314849      2.0944735553
 H     -0.0729839454     -0.0827643425      2.5554656531
 H     -0.3240477964     -2.8215436281      1.7549695556
 H     -1.0695134591     -1.9439365100      3.1199593067
 H     -2.5622791888     -0.5541672502      1.6797944388
 H     -2.8398073555     -2.2712020452      1.2520363456
 H     -1.4942347731     -2.0207287289     -0.5205337284
 H     -2.5403722775     -0.7637724631     -0.5539984224
 O     -0.1052001645      0.5758429349     -1.8654922048
 H     -0.8638232241      0.6235552517     -2.4536456150
 H      0.5470166277      1.1846123450     -2.2838718697
 O      1.5319903262      1.3349642623      0.2093856344
 H      2.0035473137      1.5227099995     -0.5603288841
 H      2.1889992154      1.0533952295      0.8569759491
 O      1.5822669598     -1.3343872242     -0.7325378146
 H      1.8227086136     -1.0018699251     -1.6111091757
 H      2.4139450625     -1.5365685808     -0.2622035614
 O     -1.1392229000      1.5807410759      0.6499544246
 H     -2.0113554605      1.7774125029      0.2296123167
 H     -0.6506367944      2.3996750061      0.6830452320
 O      4.4266822459     -1.7927343704      0.2860332800
 H      4.1539916751     -2.5375181998      0.8237061604
 H      5.3319409311     -1.6348067248      0.6045083140
 O     -1.9988490821      1.0741200582     -3.6507472110
 H     -2.5018726658      0.2335326421     -3.6239768563
 H     -1.6556478781      1.1800398320     -4.5049140467
 O     -3.5405216549      2.3421538259     -0.4309055743
 H     -3.8505021056      2.7256230579      0.3752647606
 H     -3.5156673807      3.0311743911     -1.0853236567
 O      2.9583937766     -0.1484326266      2.1689162560
 H      3.5290129043     -0.6023404513      1.5258733640
 H      3.5228889225      0.2669370090      2.8375367673
 O     -4.1367386719     -0.3830277106     -1.5650749216
 H     -4.8489086347     -0.7332971892     -2.0605322853
 H     -4.2691454805      0.5703270691     -1.3420908629
 O      2.0970426364      1.9662459104     -2.7366712417
 H      1.8757938544      2.8689670377     -2.9790159231
 H      2.6678005344      1.6429862459     -3.3938277580
43
# ORCA AIMD Position Step 161, t=80.50 fs, E_Pot=-170968.47816562 kJ mol^-1, Unit is Angstrom
Zn     -0.0247234395     -0.0443949167      0.0322926738
 N      0.2006480493     -0.8585827838      1.9028384604
 C     -0.8294100266     -1.8855915200      2.0496685523
 C     -2.0830137326     -1.4917141656      1.2974456836
 N     -1.6919154977     -1.1486112661     -0.0931177873
 H      1.1725566540     -1.1121845815      2.0922756594
 H     -0.0784690487     -0.0776606077      2.5540935616
 H     -0.3232496158     -2.8188665664      1.7576921769
 H     -1.0791110762     -1.9445163309      3.1373405812
 H     -2.5658318372     -0.5542450430      1.6797575089
 H     -2.8588889507     -2.2794740182      1.2467901294
 H     -1.4891769895     -2.0213905424     -0.5119386299
 H     -2.5331621374     -0.7586979897     -0.5477766585
 O     -0.1045656624      0.5766099677     -1.8648083828
 H     -0.8787902391      0.6191507765     -2.4649516553
 H      0.5470818784      1.1747731397     -2.2840257035
 O      1.5311730720      1.3336597259      0.2089249414
 H      2.0030311458      1.5239108549     -0.5658418771
 H      2.1861826245      1.0576483153      0.8697435643
 O      1.5837130037     -1.3344827614     -0.7314547129
 H      1.8292501044     -1.0095065932     -1.5975251136
 H      2.4142091177     -1.5423672269     -0.2640546007
 O     -1.1384694488      1.5814509746      0.6515811599
 H     -2.0080598459      1.7816633679      0.2277435809
 H     -0.6613900745      2.3988370550      0.6798576959
 O      4.4290059197     -1.7915065983      0.2869815659
 H      4.1575449798     -2.5307284395      0.8249801397
 H      5.3340667388     -1.6308231638      0.6099971285
 O     -2.0000407954      1.0781176796     -3.6532493802
 H     -2.4888712806      0.2385342838     -3.6297540873
 H     -1.6626775946      1.1807173848     -4.4985577424
 O     -3.5409391114      2.3399800993     -0.4280879596
 H     -3.8515770738      2.7312579797      0.3652161959
 H     -3.5227056967      3.0294315509     -1.0808060917
 O      2.9588604654     -0.1492504415      2.1691621916
 H      3.5245798264     -0.6040356245      1.5224311495
 H      3.5227121312      0.2684244794      2.8353585748
 O     -4.1403070391     -0.3836262340     -1.5664052553
 H     -4.8383824330     -0.7274568422     -2.0626501971
 H     -4.2593185370      0.5718323936     -1.3401034376
 O      2.0974424970      1.9635494622     -2.7397058413
 H      1.8848737770      2.8702156787     -2.9819608906
 H      2.6630367533      1.6380010984     -3.3916637940
43
# ORCA AIMD Position Step 162, t=81.00 fs, E_Pot=-170960.55631992 kJ mol^-1, Unit is Angstrom
Zn     -0.0245705607     -0.0433310681      0.0316115181
 N      0.2029661240     -0.8615681541      1.9035048959
 C     -0.8329053421     -1.8844789727      2.0510548745
 C     -2.0816498886     -1.4915354564      1.2962988998
 N     -1.6923490635     -1.1502957574     -0.0923778767
 H      1.1776790522     -1.1165753216      2.0907866939
 H     -0.0822347536     -0.0747354918      2.5507398636
 H     -0.3244570365     -2.8160926608      1.7598645223
 H     -1.0888192092     -1.9460635706      3.1534090455
 H     -2.5679812296     -0.5564392885      1.6802580689
 H     -2.8769094666     -2.2873767575      1.2426269063
 H     -1.4835413360     -2.0242317197     -0.5053903444
 H     -2.5248274713     -0.7541828603     -0.5416901982
 O     -0.1039227995      0.5773756464     -1.8641570757
 H     -0.8938769949      0.6151401691     -2.4760131198
 H      0.5473952465      1.1645313536     -2.2836117984
 O      1.5302197497      1.3322842668      0.2087141957
 H      2.0049518729      1.5262863796     -0.5756091220
 H      2.1834279437      1.0616832894      0.8830568136
 O      1.5851643844     -1.3345946236     -0.7302860669
 H      1.8360546995     -1.0171870429     -1.5845732358
 H      2.4137842390     -1.5477924713     -0.2666613656
 O     -1.1378226522      1.5820743171      0.6532036504
 H     -2.0040439363      1.7856927246      0.2258437555
 H     -0.6712098986      2.3995532202      0.6767221474
 O      4.4314170837     -1.7902104336      0.2880178435
 H      4.1603793223     -2.5253505233      0.8264607021
 H      5.3353682903     -1.6265943466      0.6142857669
 O     -2.0014023203      1.0820039653     -3.6554215889
 H     -2.4757072723      0.2443858813     -3.6355596655
 H     -1.6676576420      1.1821391921     -4.4976751903
 O     -3.5413010334      2.3376727041     -0.4253521491
 H     -3.8539117812      2.7379975998      0.3577224037
 H     -3.5295699039      3.0286075799     -1.0774624322
 O      2.9593574272     -0.1500324793      2.1694197941
 H      3.5203652380     -0.6056104669      1.5190241144
 H      3.5221011317      0.2693633507      2.8325090858
 O     -4.1436155337     -0.3840209350     -1.5675483852
 H     -4.8315735108     -0.7225289524     -2.0668824233
 H     -4.2496862453      0.5711439336     -1.3388429319
 O      2.0976530537      1.9609702738     -2.7425350978
 H      1.8939918913      2.8715376077     -2.9847484099
 H      2.6612598659      1.6311884485     -3.3928643524
43
# ORCA AIMD Position Step 163, t=81.50 fs, E_Pot=-170955.63421083 kJ mol^-1, Unit is Angstrom
Zn     -0.0244118162     -0.0422586013      0.0309265017
 N      0.2051691409     -0.8642143720      1.9042069933
 C     -0.8362609245     -1.8834163571      2.0528322196
 C     -2.0804866001     -1.4912633935      1.2949569210
 N     -1.6928444214     -1.1518729764     -0.0914989815
 H      1.1812288995     -1.1212249460      2.0900295204
 H     -0.0841007407     -0.0741874297      2.5452825808
 H     -0.3277104352     -2.8133018775      1.7615406261
 H     -1.0984051407     -1.9484813548      3.1672855908
 H     -2.5687189603     -0.5607414911      1.6812695103
 H     -2.8930098651     -2.2941565974      1.2396251099
 H     -1.4773797657     -2.0292343406     -0.5009643774
 H     -2.5158336351     -0.7501215450     -0.5360479374
 O     -0.1033710187      0.5781176089     -1.8635754008
 H     -0.9078476030      0.6115688924     -2.4859685608
 H      0.5482565398      1.1542378311     -2.2829103296
 O      1.5291890104      1.3308435957      0.2087105211
 H      2.0086975120      1.5295182393     -0.5883990966
 H      2.1803933351      1.0656869636      0.8963696643
 O      1.5865970839     -1.3347492847     -0.7289630193
 H      1.8434006311     -1.0244405237     -1.5735290018
 H      2.4128358429     -1.5529326098     -0.2697989375
 O     -1.1373006178      1.5825842535      0.6548224762
 H     -1.9994518671      1.7893958014      0.2238909230
 H     -0.6796709170      2.4023703620      0.6736977775
 O      4.4339290209     -1.7888257666      0.2891332834
 H      4.1623897268     -2.5216597037      0.8283477530
 H      5.3358122454     -1.6221150640      0.6173517646
 O     -2.0029219138      1.0858235706     -3.6572308823
 H     -2.4629151739      0.2502601536     -3.6412857843
 H     -1.6702590168      1.1845011964     -4.5029380927
 O     -3.5415983795      2.3352250653     -0.4227228001
 H     -3.8577060255      2.7459924195      0.3533382375
 H     -3.5362245121      3.0286033290     -1.0754004705
 O      2.9598737913     -0.1507845954      2.1696799485
 H      3.5163962229     -0.6070403219      1.5156720766
 H      3.5212045988      0.2698199092      2.8291026248
 O     -4.1466056325     -0.3841968413     -1.5684611817
 H     -4.8293722338     -0.7188468272     -2.0739158597
 H     -4.2403473543      0.5683590947     -1.3383357848
 O      2.0976692876      1.9585189251     -2.7451610389
 H      1.9031930867      2.8727485135     -2.9873393998
 H      2.6625436353      1.6224694594     -3.3975207941
43
# ORCA AIMD Position Step 164, t=82.00 fs, E_Pot=-170954.53304880 kJ mol^-1, Unit is Angstrom
Zn     -0.0242486456     -0.0411908139      0.0302460737
 N      0.2072198446     -0.8664960938      1.9049369263
 C     -0.8394325527     -1.8824233655      2.0550221625
 C     -2.0796018202     -1.4909511036      1.2934434311
 N     -1.6933430726     -1.1533562008     -0.0904818930
 H      1.1830045741     -1.1260174279      2.0900336080
 H     -0.0839612810     -0.0760130351      2.5378511872
 H     -0.3329451143     -2.8106485674      1.7627381258
 H     -1.1075418019     -1.9516287848      3.1781167438
 H     -2.5680961930     -0.5669514737      1.6827761015
 H     -2.9062967741     -2.2991607920      1.2378735617
 H     -1.4709069415     -2.0359943115     -0.4986311947
 H     -2.5068305646     -0.7464249163     -0.5312569324
 O     -0.1030006421      0.5788021416     -1.8630946911
 H     -0.9195482526      0.6085525015     -2.4940373601
 H      0.5499647446      1.1443831221     -2.2822224209
 O      1.5281618170      1.3293696743      0.2088515626
 H      2.0134359717      1.5331671194     -0.6025108382
 H      2.1768174934      1.0697695011      0.9089650103
 O      1.5879644069     -1.3349657013     -0.7274476985
 H      1.8514348110     -1.0307564119     -1.5656650733
 H      2.4116093421     -1.5578253584     -0.2731556283
 O     -1.1369150721      1.5829635811      0.6564177189
 H     -1.9945324162      1.7926341873      0.2218720236
 H     -0.6864067918      2.4075101441      0.6708718520
 O      4.4365082896     -1.7873632275      0.2903071628
 H      4.1635192368     -2.5198083178      0.8307002495
 H      5.3354664984     -1.6174365826      0.6191830946
 O     -2.0045403981      1.0895792402     -3.6586828753
 H     -2.4511993972      0.2552070130     -3.6467707012
 H     -1.6705397677      1.1878220984     -4.5138999722
 O     -3.5418289242      2.3326863003     -0.4202412474
 H     -3.8629219630      2.7550723436      0.3522097702
 H     -3.5425484152      3.0291905098     -1.0746065901
 O      2.9603889036     -0.1515048520      2.1699262017
 H      3.5127470061     -0.6082821808      1.5124417055
 H      3.5202310912      0.2698968485      2.8253633613
 O     -4.1492199562     -0.3841694921     -1.5691212239
 H     -4.8320066014     -0.7164650837     -2.0838586973
 H     -4.2315441503      0.5638062931     -1.3385668897
 O      2.0975162634      1.9562210878     -2.7475823387
 H      1.9123960827      2.8736531729     -2.9896741691
 H      2.6664580444      1.6121862471     -3.4051078249
43
# ORCA AIMD Position Step 165, t=82.50 fs, E_Pot=-170955.83453264 kJ mol^-1, Unit is Angstrom
Zn     -0.0240794154     -0.0401211019      0.0295659142
 N      0.2091213598     -0.8684494906      1.9056889448
 C     -0.8424398889     -1.8814967136      2.0576624811
 C     -2.0790318766     -1.4906420459      1.2917580076
 N     -1.6937910170     -1.1548057331     -0.0893202590
 H      1.1829840530     -1.1309556951      2.0908163008
 H     -0.0818365244     -0.0800035077      2.5286306633
 H     -0.3401130892     -2.8082646644      1.7634891238
 H     -1.1161201102     -1.9554070843      3.1855087036
 H     -2.5662360792     -0.5748354529      1.6848097389
 H     -2.9163547599     -2.3020420205      1.2373803291
 H     -1.4642856920     -2.0439606372     -0.4981575597
 H     -2.4983047469     -0.7429124282     -0.5276146990
 O     -0.1028730340      0.5794114942     -1.8627245816
 H     -0.9283494899      0.6061496355     -2.4998268483
 H      0.5528076875      1.1352209216     -2.2818128895
 O      1.5271953870      1.3278699070      0.2090714381
 H      2.0184096489      1.5368531895     -0.6164911677
 H      2.1724496511      1.0740811671      0.9204346857
 O      1.5892492794     -1.3352560765     -0.7257016493
 H      1.8603487538     -1.0358981152     -1.5616797704
 H      2.4103677175     -1.5626147477     -0.2764634518
 O     -1.1366542961      1.5832244114      0.6580011473
 H     -1.9894689903      1.7953558344      0.2197251103
 H     -0.6914063457      2.4149115651      0.6682629774
 O      4.4391571039     -1.7858196017      0.2915446817
 H      4.1638274710     -2.5196987253      0.8334866070
 H      5.3345023544     -1.6125193271      0.6198685693
 O     -2.0062093216      1.0933472761     -3.6598705370
 H     -2.4409421357      0.2584715313     -3.6519907772
 H     -1.6689667833      1.1920380552     -4.5293250827
 O     -3.5420070904      2.3300800123     -0.4178795808
 H     -3.8694101571      2.7649980230      0.3539544753
 H     -3.5485489616      3.0300433602     -1.0749061965
 O      2.9608903155     -0.1522069789      2.1701446791
 H      3.5094118553     -0.6093210809      1.5093369777
 H      3.5194008050      0.2697321618      2.8214896931
 O     -4.1515011565     -0.3839898165     -1.5695591990
 H     -4.8389534079     -0.7150291333     -2.0964202259
 H     -4.2233526948      0.5579295787     -1.3394697197
 O      2.0972415261      1.9540408569     -2.7498704128
 H      1.9216880935      2.8741049819     -2.9917574537
 H      2.6722442112      1.6007488819     -3.4147854466
43
# ORCA AIMD Position Step 166, t=83.00 fs, E_Pot=-170957.29112088 kJ mol^-1, Unit is Angstrom
Zn     -0.0239008839     -0.0390337584      0.0288758873
 N      0.2108906878     -0.8701356534      1.9064529060
 C     -0.8453277023     -1.8806233847      2.0608042291
 C     -2.0787942446     -1.4903740956      1.2898844840
 N     -1.6941378041     -1.1563029352     -0.0880042972
 H      1.1812350837     -1.1361204023      2.0924151329
 H     -0.0777952207     -0.0858129069      2.5178591343
 H     -0.3492136244     -2.8062882575      1.7638105080
 H     -1.1241338822     -1.9597559204      3.1892698344
 H     -2.5632848118     -0.5841402805      1.6874555294
 H     -2.9229716743     -2.3026063241      1.2381422773
 H     -1.4576634482     -2.0525180455     -0.4992521076
 H     -2.4906265721     -0.7393865118     -0.5253702697
 O     -0.1030326821      0.5799371454     -1.8624661470
 H     -0.9338834283      0.6044051812     -2.5031312222
 H      0.5570422544      1.1268546382     -2.2818927771
 O      1.5263280755      1.3263383388      0.2093126522
 H      2.0230103806      1.5402720829     -0.6291858976
 H      2.1670693616      1.0787728550      0.9305445366
 O      1.5904529580     -1.3356236264     -0.7237012036
 H      1.8702734677     -1.0398506878     -1.5617591748
 H      2.4093692538     -1.5674844792     -0.2794904594
 O     -1.1364939078      1.5833990309      0.6595988240
 H     -1.9844047178      1.7975418089      0.2173617065
 H     -0.6948645696      2.4242790357      0.6658623010
 O      4.4418911637     -1.7841884550      0.2928674222
 H      4.1634409094     -2.5210870621      0.8365872027
 H      5.3331582522     -1.6072716729      0.6195273184
 O     -2.0078904552      1.0972285950     -3.6609255312
 H     -2.4323116217      0.2595155386     -3.6569959792
 H     -1.6661898191      1.1970482138     -4.5476283050
 O     -3.5421574180      2.3274221995     -0.4155750492
 H     -3.8769431830      2.7754423565      0.3578946803
 H     -3.5542825549      3.0307842245     -1.0760523169
 O      2.9613694057     -0.1529112140      2.1703222878
 H      3.5063562360     -0.6101502508      1.5063361061
 H      3.5189381920      0.2694709125      2.8176594152
 O     -4.1535422184     -0.3837309442     -1.5698368929
 H     -4.8492472611     -0.7139265359     -2.1110108316
 H     -4.2157864836      0.5512553385     -1.3409554720
 O      2.0969002628      1.9519143895     -2.7521263409
 H      1.9312298642      2.8739974252     -2.9936245193
 H      2.6790350594      1.5885852513     -3.4256142627
43
# ORCA AIMD Position Step 167, t=83.50 fs, E_Pot=-170957.34818645 kJ mol^-1, Unit is Angstrom
Zn     -0.0237143265     -0.0379414197      0.0281838219
 N      0.2124968533     -0.8715812633      1.9071875378
 C     -0.8480649771     -1.8798118546      2.0644083303
 C     -2.0789007125     -1.4901907228      1.2878545723
 N     -1.6943284637     -1.1578905005     -0.0865645213
 H      1.1779577753     -1.1414931602      2.0948399505
 H     -0.0720817999     -0.0927606146      2.5061930486
 H     -0.3599975152     -2.8049286937      1.7636920163
 H     -1.1313945872     -1.9645067175      3.1892351477
 H     -2.5595022780     -0.5942858587      1.6907643055
 H     -2.9258613889     -2.3007528615      1.2401300506
 H     -1.4513807756     -2.0607826512     -0.5015782133
 H     -2.4842744331     -0.7357818605     -0.5247869560
 O     -0.1035044906      0.5803628729     -1.8623252927
 H     -0.9357820167      0.6034092789     -2.5037606026
 H      0.5627231273      1.1195085917     -2.2825976676
 O      1.5256079377      1.3248073938      0.2095208026
 H      2.0266450826      1.5430889068     -0.6393436955
 H      2.1606727436      1.0838381845      0.9388813719
 O      1.5915562591     -1.3360505455     -0.7215060571
 H      1.8809190399     -1.0426834725     -1.5655650987
 H      2.4088758300     -1.5724805852     -0.2819526715
 O     -1.1364065418      1.5835294346      0.6611953443
 H     -1.9796061095      1.7991229928      0.2147529104
 H     -0.6970089770      2.4348378776      0.6637229252
 O      4.4446475012     -1.7825135926      0.2942670812
 H      4.1625495073     -2.5235806739      0.8397145763
 H      5.3317688563     -1.6017301247      0.6183075955
 O     -2.0095094943      1.1012067338     -3.6619583843
 H     -2.4255343684      0.2580604329     -3.6617282776
 H     -1.6629817563      1.2025937787     -4.5666299263
 O     -3.5423060518      2.3248064553     -0.4133166745
 H     -3.8850153317      2.7856969465      0.3630799272
 H     -3.5596522245      3.0309911884     -1.0777297993
 O      2.9618057148     -0.1536190382      2.1704417864
 H      3.5036265196     -0.6107410042      1.5034957033
 H      3.5190723300      0.2692584939      2.8141388974
 O     -4.1553985831     -0.3834866590     -1.5700247317
 H     -4.8614025852     -0.7124599267     -2.1264323441
 H     -4.2090567653      0.5445931756     -1.3428716261
 O      2.0965574045      1.9498288982     -2.7543921637
 H      1.9409246159      2.8732720209     -2.9952737509
 H      2.6857772846      1.5764643100     -3.4363601922
43
# ORCA AIMD Position Step 168, t=84.00 fs, E_Pot=-170955.96925497 kJ mol^-1, Unit is Angstrom
Zn     -0.0235200510     -0.0368500875      0.0274933003
 N      0.2139234634     -0.8728399847      1.9078466590
 C     -0.8506420622     -1.8790627492      2.0684336206
 C     -2.0793412039     -1.4901293221      1.2856923606
 N     -1.6943245602     -1.1596098154     -0.0850325319
 H      1.1734610539     -1.1471149697      2.0981002115
 H     -0.0650306775     -0.0999928025      2.4943737069
 H     -0.3722183169     -2.8043717511      1.7631231414
 H     -1.1378133067     -1.9695134982      3.1854967382
 H     -2.5551810971     -0.6046586969      1.6948133615
 H     -2.9249793852     -2.2965528812      1.2432777500
 H     -1.4457235191     -2.0679739018     -0.5047891366
 H     -2.4794973434     -0.7320824798     -0.5259913665
 O     -0.1042894099      0.5806858240     -1.8623030806
 H     -0.9339411578      0.6032135878     -2.5017065632
 H      0.5697714463      1.1132130365     -2.2839552260
 O      1.5250596598      1.3232978775      0.2096539169
 H      2.0289219872      1.5450726639     -0.6461237493
 H      2.1533310492      1.0892556433      0.9452437419
 O      1.5925624501     -1.3365112605     -0.7191933602
 H      1.8918924958     -1.0446723705     -1.5722175704
 H      2.4090718880     -1.5776534106     -0.2836496509
 O     -1.1363591962      1.5836677491      0.6627848219
 H     -1.9752769805      1.8000648748      0.2118679172
 H     -0.6981891608      2.4457088043      0.6618774262
 O      4.4473751336     -1.7808341216      0.2957442006
 H      4.1613897886     -2.5267023636      0.8425516659
 H      5.3306959017     -1.5959021935      0.6163906801
 O     -2.0110202514      1.1052649165     -3.6630756058
 H     -2.4205508933      0.2542478266     -3.6661810385
 H     -1.6600462739      1.2084417120     -4.5844199129
 O     -3.5424816649      2.3223092116     -0.4110764669
 H     -3.8931349768      2.7950975329      0.3685330435
 H     -3.5646023109      3.0302757288     -1.0796201063
 O      2.9621851457     -0.1543346020      2.1704910947
 H      3.5012430089     -0.6110771350      1.5008481745
 H      3.5199800714      0.2692116057      2.8111217246
 O     -4.1571437280     -0.3833502211     -1.5701999696
 H     -4.8739505203     -0.7099577188     -2.1415243404
 H     -4.2032947995      0.5387590021     -1.3450505857
 O      2.0962693413      1.9477571523     -2.7567153023
 H      1.9507200712      2.8719411485     -2.9967283389
 H      2.6915697475      1.5650237016     -3.4459812594
43
# ORCA AIMD Position Step 169, t=84.50 fs, E_Pot=-170954.27691231 kJ mol^-1, Unit is Angstrom
Zn     -0.0233177689     -0.0357616398      0.0268052925
 N      0.2151628071     -0.8739817958      1.9083802401
 C     -0.8530607631     -1.8783725425      2.0728353656
 C     -2.0800905883     -1.4902199343      1.2834171463
 N     -1.6941056521     -1.1614915673     -0.0834416101
 H      1.1681196992     -1.1530698381      2.1022110243
 H     -0.0570291405     -0.1065411594      2.4831914970
 H     -0.3856451043     -2.8047731236      1.7620913133
 H     -1.1433763256     -1.9746541517      3.1783481946
 H     -2.5506193016     -0.6146441218      1.6996962331
 H     -2.9204580242     -2.2902129052      1.2474996545
 H     -1.4409179892     -2.0734698460     -0.5085745386
 H     -2.4763165547     -0.7283488224     -0.5289779200
 O     -0.1053681424      0.5809136585     -1.8623981538
 H     -0.9284590530      0.6038413954     -2.4970920341
 H      0.5779818123      1.1078442347     -2.2858914057
 O      1.5246886215      1.3218223515      0.2096812262
 H      2.0296286480      1.5460835005     -0.6490360570
 H      2.1451882071      1.0949848384      0.9496071165
 O      1.5934913079     -1.3369778917     -0.7168458537
 H      1.9027460166     -1.0461991181     -1.5805476909
 H      2.4100406972     -1.5830365998     -0.2844689934
 O     -1.1363197881      1.5838672300      0.6643664369
 H     -1.9715574610      1.8003504885      0.2086845567
 H     -0.6987852372      2.4560347843      0.6603487767
 O      4.4500334308     -1.7791831560      0.2973042122
 H      4.1602120703     -2.5299680709      0.8447930687
 H      5.3302860661     -1.5897812578      0.6139612119
 O     -2.0124026680      1.1093782793     -3.6643659015
 H     -2.4170895586      0.2485777801     -3.6703711017
 H     -1.6579449188      1.2144067502     -4.5995150898
 O     -3.5427111665      2.3199887156     -0.4088214228
 H     -3.9008759308      2.8030775418      0.3733940603
 H     -3.5691015313      3.0283180621     -1.0814478549
 O      2.9624998552     -0.1550617930      2.1704639995
 H      3.4992124680     -0.6111508199      1.4984094698
 H      3.5217687603      0.2693996291      2.8087129090
 O     -4.1588495410     -0.3834018935     -1.5704327545
 H     -4.8856449611     -0.7058731967     -2.1553079306
 H     -4.1985702512      0.5344818108     -1.3473359269
 O      2.0960796602      1.9456667355     -2.7591379050
 H      1.9605877522      2.8700788987     -2.9980286558
 H      2.6957275052      1.5547407438     -3.4536934633
43
# ORCA AIMD Position Step 170, t=85.00 fs, E_Pot=-170953.83441068 kJ mol^-1, Unit is Angstrom
Zn     -0.0231071505     -0.0346770707      0.0261202397
 N      0.2162099499     -0.8750819079      1.9087371081
 C     -0.8553241387     -1.8777370269      2.0775558428
 C     -2.0811116131     -1.4904822621      1.2810497829
 N     -1.6936688373     -1.1635485118     -0.0818293017
 H      1.1623440631     -1.1594596333      2.1071876357
 H     -0.0484889635     -0.1113950601      2.4734456979
 H     -0.4000483434     -2.8062478402      1.7605860313
 H     -1.1481247945     -1.9798234703      3.1682742168
 H     -2.5461025973     -0.6236471093      1.7054981033
 H     -2.9125851527     -2.2820703497      1.2526924051
 H     -1.4371370003     -2.0768213936     -0.5126762390
 H     -2.4745543959     -0.7247295017     -0.5336156472
 O     -0.1067019931      0.5810610418     -1.8626060997
 H     -0.9196246077      0.6052946261     -2.4901650068
 H      0.5870357185      1.1031794706     -2.2882477672
 O      1.5244847751      1.3203897468      0.2095811681
 H      2.0287042040      1.5460586921     -0.6478768004
 H      2.1364712362      1.1009565140      0.9520930220
 O      1.5943720466     -1.3374243311     -0.7145438503
 H      1.9130179289     -1.0476630589     -1.5893158404
 H      2.4117530525     -1.5886275518     -0.2843815695
 O     -1.1362613333      1.5841758630      0.6659392914
 H     -1.9685306503      1.7999691439      0.2052017192
 H     -0.6991463302      2.4650492382      0.6591573602
 O      4.4525881307     -1.7775888540      0.2989523412
 H      4.1592587635     -2.5329368905      0.8461736272
 H      5.3308313619     -1.5833692025      0.6111891129
 O     -2.0136549050      1.1135080278     -3.6658948523
 H     -2.4147552352      0.2418026279     -3.6743146090
 H     -1.6570889529      1.2203473680     -4.6108484298
 O     -3.5430169887      2.3178883956     -0.4065232446
 H     -3.9078914372      2.8091869804      0.3769846313
 H     -3.5731272550      3.0248879918     -1.0830084233
 O      2.9627476358     -0.1558013761      2.1703605138
 H      3.4975384472     -0.6109600809      1.4961873880
 H      3.5244638034      0.2698338957      2.8069255868
 O     -4.1605747867     -0.3837005372     -1.5707786088
 H     -4.8955233127     -0.6998243516     -2.1670231745
 H     -4.1949087001      0.5323147937     -1.3496027185
 O      2.0960187767      1.9435282779     -2.7616888898
 H      1.9704967080      2.8678124707     -2.9992250425
 H      2.6977823350      1.5459467047     -3.4589641518
43
# ORCA AIMD Position Step 171, t=85.50 fs, E_Pot=-170955.81557905 kJ mol^-1, Unit is Angstrom
Zn     -0.0228847355     -0.0335809542      0.0254282720
 N      0.2170747103     -0.8762275700      1.9088754372
 C     -0.8574659652     -1.8771433452      2.0825940535
 C     -2.0823735737     -1.4909262138      1.2785791187
 N     -1.6930185949     -1.1658066309     -0.0802122594
 H      1.1564535714     -1.1664871466      2.1131224667
 H     -0.0396652130     -0.1136877172      2.4657204028
 H     -0.4154254300     -2.8088863212      1.7585788002
 H     -1.1522208416     -1.9850134914      3.1557876516
 H     -2.5418139541     -0.6312609759      1.7123666748
 H     -2.9016684832     -2.2724666646      1.2588218447
 H     -1.4344477060     -2.0777973732     -0.5169591569
 H     -2.4738566290     -0.7213950350     -0.5397454642
 O     -0.1082553073      0.5811484204     -1.8629204535
 H     -0.9077862045      0.6075867829     -2.4811988362
 H      0.5966795457      1.0988745050     -2.2908456990
 O      1.5244222854      1.3189850652      0.2093381272
 H      2.0262033845      1.5450007356     -0.6426591749
 H      2.1273519238      1.1071646984      0.9529846029
 O      1.5952520089     -1.3378359751     -0.7123228356
 H      1.9224296144     -1.0494471412     -1.5975033712
 H      2.4141003496     -1.5944695286     -0.2834258552
 O     -1.1361630298      1.5846381625      0.6675247540
 H     -1.9661822745      1.7989013300      0.2013896669
 H     -0.6995646388      2.4722541489      0.6583057768
 O      4.4550506021     -1.7760491770      0.3007174521
 H      4.1587364291     -2.5352906448      0.8465076461
 H      5.3325456953     -1.5765885157      0.6081696850
 O     -2.0148053951      1.1176686202     -3.6677303951
 H     -2.4130760116      0.2346922351     -3.6780777592
 H     -1.6577440610      1.2262533025     -4.6178803390
 O     -3.5434209766      2.3160064324     -0.4041257193
 H     -3.9140258534      2.8131824161      0.3788767931
 H     -3.5767197638      3.0197985144     -1.0842045634
 O      2.9629350138     -0.1565615193      2.1701847592
 H      3.4962009272     -0.6105030606      1.4941506709
 H      3.5280528961      0.2704738151      2.8056592590
 O     -4.1623889627     -0.3842842098     -1.5712817402
 H     -4.9030480884     -0.6914903604     -2.1762981701
 H     -4.1922482664      0.5325300892     -1.3518109764
 O      2.0961043025      1.9412853934     -2.7644222859
 H      1.9805588856      2.8652725619     -3.0003896215
 H      2.6974906394      1.5387109714     -3.4615618062
43
# ORCA AIMD Position Step 172, t=86.00 fs, E_Pot=-170960.39056116 kJ mol^-1, Unit is Angstrom
Zn     -0.0226514194     -0.0324796437      0.0247333523
 N      0.2177447278     -0.8774695021      1.9087596180
 C     -0.8594707046     -1.8765923087      2.0878354878
 C     -2.0838150109     -1.4915361843      1.2760476337
 N     -1.6921803944     -1.1682330628     -0.0786410164
 H      1.1508431563     -1.1742125522      2.1199993061
 H     -0.0309037149     -0.1126943368      2.4606074387
 H     -0.4314920841     -2.8126826822      1.7560854746
 H     -1.1557929214     -1.9901370098      3.1418178228
 H     -2.5379692359     -0.6370040242      1.7202773898
 H     -2.8883534808     -2.2620609353      1.2657366202
 H     -1.4329338698     -2.0762864960     -0.5212679108
 H     -2.4737960823     -0.7186373930     -0.5470302522
 O     -0.1099466307      0.5811947282     -1.8633205171
 H     -0.8937320951      0.6106934385     -2.4707900785
 H      0.6064418426      1.0946599435     -2.2934287363
 O      1.5244660389      1.3176191606      0.2089474999
 H      2.0223427996      1.5429873927     -0.6336861482
 H      2.1182484730      1.1134584258      0.9526457435
 O      1.5961629140     -1.3381956769     -0.7102493304
 H      1.9305614964     -1.0518382879     -1.6040933839
 H      2.4168450875     -1.6004581296     -0.2817035507
 O     -1.1360133035      1.5852816723      0.6691111065
 H     -1.9645042237      1.7971352064      0.1973158991
 H     -0.7002498738      2.4771432293      0.6578170292
 O      4.4573911006     -1.7745857368      0.3025930453
 H      4.1588369298     -2.5367540026      0.8456615870
 H      5.3355088369     -1.5695185650      0.6050124466
 O     -2.0158652660      1.1217892600     -3.6698890381
 H     -2.4116350933      0.2281629294     -3.6816374352
 H     -1.6600625594      1.2320367645     -4.6201961987
 O     -3.5439325415      2.3143673549     -0.4016258009
 H     -3.9190786348      2.8148315472      0.3787801985
 H     -3.5798450039      3.0130438777     -1.0850027726
 O      2.9630685406     -0.1573319664      2.1699484458
 H      3.4952127371     -0.6097869083      1.4923055667
 H      3.5323914239      0.2712160798      2.8047693823
 O     -4.1643120357     -0.3851553692     -1.5719616529
 H     -4.9077581040     -0.6808250050     -2.1827470969
 H     -4.1905636740      0.5351268148     -1.3539362151
 O      2.0963427119      1.9389313935     -2.7673272808
 H      1.9906818979      2.8626603569     -3.0015699733
 H      2.6947678401      1.5331406961     -3.4613781084
43
# ORCA AIMD Position Step 173, t=86.50 fs, E_Pot=-170966.45693617 kJ mol^-1, Unit is Angstrom
Zn     -0.0224100657     -0.0313875800      0.0240446337
 N      0.2182036792     -0.8788235336      1.9083795843
 C     -0.8613053164     -1.8760891540      2.0931068915
 C     -2.0853526366     -1.4922654930      1.2735238598
 N     -1.6911962462     -1.1707603719     -0.0771751809
 H      1.1458580817     -1.1825978755      2.1277235858
 H     -0.0224821189     -0.1081375258      2.4584079476
 H     -0.4478504924     -2.8175141395      1.7531662314
 H     -1.1590128780     -1.9951008975      3.1276153517
 H     -2.5347278284     -0.6405306330      1.7290561170
 H     -2.8735969682     -2.2517530428      1.2732193470
 H     -1.4326126228     -2.0724094325     -0.5254819596
 H     -2.4738945966     -0.7167722423     -0.5550156459
 O     -0.1116623527      0.5812177378     -1.8637678600
 H     -0.8786778161      0.6145588418     -2.4598445900
 H      0.6157881805      1.0903129473     -2.2957202046
 O      1.5245668431      1.3163085781      0.2084207193
 H      2.0175351620      1.5401996562     -0.6216623610
 H      2.1096936684      1.1196227617      0.9515665952
 O      1.5971282052     -1.3384911733     -0.7083855147
 H      1.9370387149     -1.0550161284     -1.6082783251
 H      2.4196611193     -1.6064180764     -0.2793794856
 O     -1.1358106433      1.5861146651      0.6706737683
 H     -1.9634437364      1.7946810588      0.1931058347
 H     -0.7013185222      2.4794007921      0.6577078865
 O      4.4595761960     -1.7732200418      0.3045549471
 H      4.1596986613     -2.5371735970      0.8436135450
 H      5.3396239450     -1.5623260317      0.6018036863
 O     -2.0168436362      1.1257735177     -3.6723469102
 H     -2.4100795460      0.2230766345     -3.6849384151
 H     -1.6640306942      1.2376127484     -4.6177675548
 O     -3.5445492200      2.3129883105     -0.3990469673
 H     -3.9229282560      2.8140606505      0.3766431345
 H     -3.5824599014      3.0048015724     -1.0854678484
 O      2.9631583666     -0.1580940470      2.1696697565
 H      3.4945877537     -0.6088328112      1.4906624438
 H      3.5372336837      0.2719120741      2.8040569252
 O     -4.1663338696     -0.3862778219     -1.5728131867
 H     -4.9094594725     -0.6680303566     -2.1861930045
 H     -4.1897973485      0.5397406108     -1.3559971938
 O      2.0967244168      1.9364866698     -2.7703564759
 H      2.0006970376      2.8602019310     -3.0027903440
 H      2.6897790766      1.5292206130     -3.4585692784
43
# ORCA AIMD Position Step 174, t=87.00 fs, E_Pot=-170972.03669807 kJ mol^-1, Unit is Angstrom
Zn     -0.0221589128     -0.0302971189      0.0233574321
 N      0.2184469669     -0.8803011598      1.9077468902
 C     -0.8629715589     -1.8756292350      2.0983270401
 C     -2.0869261421     -1.4930550971      1.2710318857
 N     -1.6900941241     -1.1733593120     -0.0758381756
 H      1.1416087571     -1.1917152644      2.1363204126
 H     -0.0143535291     -0.1001816085      2.4589932785
 H     -0.4644438835     -2.8232671935      1.7498520986
 H     -1.1621747446     -1.9999470629      3.1142931085
 H     -2.5320877150     -0.6417808625      1.7386010805
 H     -2.8582388018     -2.2423655797      1.2811998386
 H     -1.4334151582     -2.0664239916     -0.5296363288
 H     -2.4736942128     -0.7160386571     -0.5633873211
 O     -0.1133082911      0.5812322487     -1.8642173107
 H     -0.8638359801      0.6192092659     -2.4492691544
 H      0.6244275452      1.0855696705     -2.2975173663
 O      1.5246663360      1.3150379878      0.2077750116
 H      2.0122661717      1.5368549642     -0.6073827252
 H      2.1020514582      1.1255632377      0.9502890502
 O      1.5981855302     -1.3387233874     -0.7067355490
 H      1.9417369276     -1.0591270963     -1.6096292741
 H      2.4222539342     -1.6122826152     -0.2765964034
 O     -1.1355581668      1.5871464257      0.6722189943
 H     -1.9628811459      1.7915118174      0.1888212002
 H     -0.7028133123      2.4790010259      0.6579813890
 O      4.4616303193     -1.7719344551      0.3066142137
 H      4.1614142649     -2.5365511340      0.8404110541
 H      5.3447284032     -1.5550653891      0.5985199582
 O     -2.0177730579      1.1296149034     -3.6751041515
 H     -2.4081155932      0.2200021537     -3.6879893592
 H     -1.6695615879      1.2430587219     -4.6109279700
 O     -3.5452724222      2.3118394242     -0.3963691966
 H     -3.9256524752      2.8109551562      0.3726079887
 H     -3.5845895948      2.9952092940     -1.0857714329
 O      2.9632193163     -0.1588431413      2.1693637073
 H      3.4943191933     -0.6076511244      1.4891895575
 H      3.5423912832      0.2724105677      2.8032821477
 O     -4.1684686549     -0.3876108820     -1.5738295381
 H     -4.9082961574     -0.6532065633     -2.1867902397
 H     -4.1898375957      0.5458231972     -1.3580944686
 O      2.0972331071      1.9339341883     -2.7735086562
 H      2.0106401783      2.8580490003     -3.0040839269
 H      2.6828192301      1.5266902355     -3.4535006393
43
# ORCA AIMD Position Step 175, t=87.50 fs, E_Pot=-170974.99352823 kJ mol^-1, Unit is Angstrom
Zn     -0.0218979920     -0.0292085572      0.0226721665
 N      0.2184678327     -0.8818771507      1.9068985789
 C     -0.8644541352     -1.8752126742      2.1033695564
 C     -2.0884608693     -1.4938188381      1.2686196135
 N     -1.6889091065     -1.1759745036     -0.0746570480
 H      1.1381015218     -1.2015211196      2.1457325186
 H     -0.0064068327     -0.0894616045      2.4619502393
 H     -0.4811125505     -2.8297324627      1.7462189851
 H     -1.1655796921     -2.0047092067      3.1031282793
 H     -2.5299923268     -0.6408431514      1.7486570446
 H     -2.8433349244     -2.2348868133      1.2895704863
 H     -1.4352200886     -2.0587753149     -0.5338049250
 H     -2.4727996184     -0.7166413696     -0.5717928754
 O     -0.1147688488      0.5812476104     -1.8646077106
 H     -0.8507413382      0.6246735774     -2.4402150136
 H      0.6320676683      1.0802537235     -2.2986366704
 O      1.5246974840      1.3137960539      0.2070485979
 H      2.0072122520      1.5332711825     -0.5920044929
 H      2.0957216071      1.1311471571      0.9493683430
 O      1.5993591805     -1.3388960945     -0.7053019329
 H      1.9445759357     -1.0642151367     -1.6079380738
 H      2.4243191610     -1.6179435019     -0.2735062978
 O     -1.1352674388      1.5883678480      0.6737411231
 H     -1.9626832779      1.7876198952      0.1845664417
 H     -0.7046807345      2.4760972003      0.6586361984
 O      4.4635715597     -1.7707116271      0.3087646489
 H      4.1640196853     -2.5350136585      0.8362017461
 H      5.3505278596     -1.5478682215      0.5951245046
 O     -2.0186809234      1.1332867004     -3.6781217030
 H     -2.4055606882      0.2193499287     -3.6907698174
 H     -1.6764100475      1.2484633347     -4.6003701291
 O     -3.5460923796      2.3108874391     -0.3935985188
 H     -3.9274030282      2.8057378395      0.3670284100
 H     -3.5862458351      2.9845442055     -1.0861627003
 O      2.9632661095     -0.1595688750      2.1690470349
 H      3.4944025703     -0.6062623142      1.4878626284
 H      3.5476351214      0.2725573571      2.8022165963
 O     -4.1707009680     -0.3890903599     -1.5749834431
 H     -4.9046495354     -0.6366486771     -2.1848783320
 H     -4.1905617222      0.5526512427     -1.3603281642
 O      2.0978378973      1.9312862453     -2.7767482774
 H      2.0204781727      2.8563288527     -3.0054566624
 H      2.6744063744      1.5251774234     -3.4467720656
43
# ORCA AIMD Position Step 176, t=88.00 fs, E_Pot=-170974.22870862 kJ mol^-1, Unit is Angstrom
Zn     -0.0216262054     -0.0281173705      0.0219862947
 N      0.2182644439     -0.8835147450      1.9058852747
 C     -0.8657440062     -1.8748391428      2.1081337439
 C     -2.0898910265     -1.4944599593      1.2663280719
 N     -1.6876690945     -1.1785569439     -0.0736449237
 H      1.1351884317     -1.2119567596      2.1559107358
 H      0.0015786838     -0.0768889050      2.4666632533
 H     -0.4977814989     -2.8366789556      1.7423517065
 H     -1.1695387857     -2.0094571877      3.0952818408
 H     -2.5283148938     -0.6379592300      1.7589322720
 H     -2.8299013439     -2.2302816014      1.2982836018
 H     -1.4378614828     -2.0500201365     -0.5381467981
 H     -2.4709023664     -0.7187211224     -0.5799552320
 O     -0.1159377117      0.5812674875     -1.8648746082
 H     -0.8409078918      0.6310384607     -2.4338280194
 H      0.6385255423      1.0742254419     -2.2989439095
 O      1.5245892798      1.3125600802      0.2062953766
 H      2.0031667334      1.5298215530     -0.5768560970
 H      2.0910027063      1.1362868037      0.9492964560
 O      1.6006703687     -1.3390180992     -0.7040664427
 H      1.9455828105     -1.0702697551     -1.6032432391
 H      2.4256006509     -1.6233287993     -0.2702244139
 O     -1.1349550063      1.5897624531      0.6752411635
 H     -1.9627065014      1.7829870000      0.1804325821
 H     -0.7067869021      2.4710277973      0.6596676139
 O      4.4654338918     -1.7695198268      0.3110060100
 H      4.1675118049     -2.5328070217      0.8311950199
 H      5.3566875951     -1.5408512275      0.5915415218
 O     -2.0196012447      1.1367874621     -3.6813496114
 H     -2.4023228066      0.2213150574     -3.6932698480
 H     -1.6842170695      1.2539992897     -4.5871210682
 O     -3.5469959622      2.3100825900     -0.3907371950
 H     -3.9284451247      2.7987449889      0.3604278543
 H     -3.5874540864      2.9730960252     -1.0869535788
 O      2.9633129628     -0.1602649687      2.1687331633
 H      3.4948288899     -0.6046841035      1.4866479774
 H      3.5527754606      0.2722183852      2.8006583617
 O     -4.1730092793     -0.3906501126     -1.5762391320
 H     -4.8991501031     -0.6186710022     -2.1810132711
 H     -4.1918356265      0.5594887093     -1.3627980549
 O      2.0984988117      1.9285561873     -2.7800418090
 H      2.0302257959      2.8551028404     -3.0068999619
 H      2.6652083429      1.5241613403     -3.4391679868
43
# ORCA AIMD Position Step 177, t=88.50 fs, E_Pot=-170970.45111744 kJ mol^-1, Unit is Angstrom
Zn     -0.0213477176     -0.0270400436      0.0213105396
 N      0.2178468625     -0.8851382959      1.9047868112
 C     -0.8668122671     -1.8745176154      2.1124456390
 C     -2.0911346295     -1.4948696245      1.2642434724
 N     -1.6864222764     -1.1810063973     -0.0728245084
 H      1.1326603706     -1.2227085172      2.1665722311
 H      0.0096850414     -0.0637772319      2.4723234654
 H     -0.5140615301     -2.8437079793      1.7384331841
 H     -1.1742274060     -2.0141623517      3.0918165774
 H     -2.5269248841     -0.6335515979      1.7688788664
 H     -2.8190976065     -2.2294716052      1.3071457479
 H     -1.4410771512     -2.0409977051     -0.5427919841
 H     -2.4678425936     -0.7222966418     -0.5874944534
 O     -0.1167092405      0.5812900065     -1.8649580582
 H     -0.8357615729      0.6382899357     -2.4311717377
 H      0.6435764334      1.0675237610     -2.2983511299
 O      1.5242761885      1.3113266524      0.2055990268
 H      2.0010693399      1.5269807649     -0.5636672864
 H      2.0881605947      1.1408297759      0.9504331196
 O      1.6021047603     -1.3390996690     -0.7030202840
 H      1.9448668119     -1.0770860701     -1.5959400485
 H      2.4258818786     -1.6282820450     -0.2668943408
 O     -1.1346487262      1.5912739913      0.6766917404
 H     -1.9628091384      1.7776969333      0.1765876421
 H     -0.7088728731      2.4644232770      0.6610433757
 O      4.4672196993     -1.7683429302      0.3132909443
 H      4.1717720000     -2.5303318975      0.8257654604
 H      5.3627334522     -1.5342705063      0.5877554766
 O     -2.0205532138      1.1400577052     -3.6846497301
 H     -2.3984747906      0.2258275862     -3.6954335680
 H     -1.6923213384      1.2597982163     -4.5728644434
 O     -3.5479457221      2.3093806731     -0.3878523015
 H     -3.9291266083      2.7905790862      0.3536346769
 H     -3.5882228983      2.9614033827     -1.0884663779
 O      2.9633713120     -0.1609136501      2.1684382226
 H      3.4955728648     -0.6029683766      1.4855332810
 H      3.5575600377      0.2713017546      2.7984893450
 O     -4.1753112466     -0.3921920886     -1.5775239786
 H     -4.8928038347     -0.6000148386     -2.1760564830
 H     -4.1934880640      0.5655179651     -1.3655255485
 O      2.0991532876      1.9258223062     -2.7832818761
 H      2.0397167925      2.8543871811     -3.0083590974
 H      2.6562250303      1.5230182248     -3.4317988883
43
# ORCA AIMD Position Step 178, t=89.00 fs, E_Pot=-170965.70058619 kJ mol^-1, Unit is Angstrom
Zn     -0.0210602949     -0.0259676113      0.0206396603
 N      0.2172275147     -0.8867134486      1.9036603719
 C     -0.8676689086     -1.8742518231      2.1162734187
 C     -2.0921645185     -1.4949703642      1.2623983013
 N     -1.6851822878     -1.1832857607     -0.0721865510
 H      1.1301659300     -1.2336703105      2.1776424558
 H      0.0181484878     -0.0511355960      2.4782471689
 H     -0.5299550937     -2.8505722862      1.7345738126
 H     -1.1798012933     -2.0188727250      3.0932138582
 H     -2.5256467140     -0.6280419046      1.7781618808
 H     -2.8115042793     -2.2329969468      1.3161810470
 H     -1.4446426577     -2.0323945057     -0.5480043044
 H     -2.4635314415     -0.7273576871     -0.5942849062
 O     -0.1170479455      0.5813104546     -1.8648296867
 H     -0.8359007554      0.6465621504     -2.4327068024
 H      0.6472239854      1.0601027750     -2.2968287467
 O      1.5237029873      1.3100626184      0.2050296906
 H      2.0017072769      1.5251138268     -0.5536926150
 H      2.0872046721      1.1447836024      0.9529501892
 O      1.6036679190     -1.3391567841     -0.7021130644
 H      1.9426528238     -1.0845311517     -1.5865655550
 H      2.4250519760     -1.6327967389     -0.2635389506
 O     -1.1343728867      1.5928682825      0.6781012503
 H     -1.9628649164      1.7717377075      0.1730942394
 H     -0.7106573039      2.4569498514      0.6627493918
 O      4.4689749349     -1.7671325631      0.3156214592
 H      4.1767303917     -2.5280169705      0.8202109595
 H      5.3683615326     -1.5282112150      0.5836730305
 O     -2.0215794226      1.1431278263     -3.6879375268
 H     -2.3941081990      0.2326533454     -3.6972664772
 H     -1.7001191074      1.2661857508     -4.5593056207
 O     -3.5489201380      2.3087140878     -0.3849533363
 H     -3.9298985712      2.7817725206      0.3474478173
 H     -3.5885912498      2.9497206276     -1.0910241926
 O      2.9634509315     -0.1615157612      2.1681666931
 H      3.4966129292     -0.6011316249      1.4844781090
 H      3.5619075561      0.2697504707      2.7956203009
 O     -4.1775646609     -0.3936593895     -1.5787854062
 H     -4.8867073850     -0.5810450301     -2.1709658422
 H     -4.1953717745      0.5701991449     -1.3685477511
 O      2.0997496432      1.9231077118     -2.7864330482
 H      2.0490180335      2.8541039104     -3.0098005583
 H      2.6483130601      1.5210373828     -3.4256811730
43
# ORCA AIMD Position Step 179, t=89.50 fs, E_Pot=-170962.25673404 kJ mol^-1, Unit is Angstrom
Zn     -0.0207640242     -0.0249003722      0.0199742230
 N      0.2164284608     -0.8882012380      1.9025684848
 C     -0.8683274414     -1.8740524020      2.1195882920
 C     -2.0929726650     -1.4947120880      1.2608415437
 N     -1.6839663257     -1.1853450342     -0.0717221383
 H      1.1273453254     -1.2446241777      2.1889316817
 H      0.0270778775     -0.0399675345      2.4837853465
 H     -0.5453241813     -2.8569712893      1.7309297203
 H     -1.1862252424     -2.0235403305      3.0994811279
 H     -2.5243321966     -0.6219145554      1.7863623418
 H     -2.8074046417     -2.2409964319      1.3253323367
 H     -1.4483024753     -2.0249561146     -0.5540049777
 H     -2.4580245033     -0.7337847629     -0.6002064781
 O     -0.1169676157      0.5813229335     -1.8644958874
 H     -0.8411646783      0.6558907969     -2.4382993588
 H      0.6495068482      1.0520287572     -2.2944070781
 O      1.5228414792      1.3087496538      0.2046511923
 H      2.0056533556      1.5245004733     -0.5478891121
 H      2.0880120994      1.1481572190      0.9567969864
 O      1.6053416594     -1.3392069684     -0.7012906751
 H      1.9392660803     -1.0923478155     -1.5759731303
 H      2.4230823652     -1.6368539944     -0.2601621179
 O     -1.1341563485      1.5944902137      0.6794667705
 H     -1.9627688919      1.7651591115      0.1700336721
 H     -0.7117903250      2.4494410349      0.6647536136
 O      4.4707272070     -1.7658492294      0.3179781187
 H      4.1822637226     -2.5263509021      0.8148880629
 H      5.3732760990     -1.5227979378      0.5792489668
 O     -2.0227128524      1.1460091944     -3.6910880334
 H     -2.3894353614      0.2413127161     -3.6987639682
 H     -1.7068698272      1.2734842257     -4.5484435693
 O     -3.5498866451      2.3080220951     -0.3820820098
 H     -3.9312485632      2.7729734337      0.3427710323
 H     -3.5885939515      2.9383472961     -1.0948698412
 O      2.9635578642     -0.1620693230      2.1679207572
 H      3.4979136768     -0.5992060764      1.4834526996
 H      3.5657550300      0.2675639048      2.7920533700
 O     -4.1796999488     -0.3949922649     -1.5799561417
 H     -4.8821310852     -0.5622781752     -2.1668451496
 H     -4.1973222258      0.5730956106     -1.3718309989
 O      2.1002339357      1.9204612027     -2.7894358075
 H      2.0581220121      2.8541211799     -3.0111757961
 H      2.6423501879      1.5175486647     -3.4218330583
43
# ORCA AIMD Position Step 180, t=90.00 fs, E_Pot=-170961.81834381 kJ mol^-1, Unit is Angstrom
Zn     -0.0204607725     -0.0238451235      0.0193187897
 N      0.2154816300     -0.8895663710      1.9015728859
 C     -0.8688123815     -1.8739344667      2.1223851935
 C     -2.0935793122     -1.4940871667      1.2596276105
 N     -1.6827901445     -1.1871370730     -0.0714201443
 H      1.1238728399     -1.2552837659      2.2001652079
 H      0.0364578911     -0.0311573992      2.4883774439
 H     -0.5599382790     -2.8625918682      1.7276823235
 H     -1.1932628951     -2.0280262415      3.1100530119
 H     -2.5228720663     -0.6156831475      1.7930455777
 H     -2.8066537861     -2.2530680851      1.3344602791
 H     -1.4517994522     -2.0193634625     -0.5609250639
 H     -2.4515343525     -0.7413353104     -0.6051825584
 O     -0.1165380322      0.5813221702     -1.8639995896
 H     -0.8505760173      0.6661868334     -2.4471753352
 H      0.6505399613      1.0434745508     -2.2911938443
 O      1.5217039058      1.3073870420      0.2045002519
 H      2.0130425507      1.5252318387     -0.5465720408
 H      2.0903037978      1.1509765799      0.9616896505
 O      1.6070858079     -1.3392689357     -0.7004921875
 H      1.9351460477     -1.1001745219     -1.5653175271
 H      2.4200503563     -1.6404444604     -0.2567429475
 O     -1.1340282053      1.5960712375      0.6807786978
 H     -1.9624447964      1.7580743400      0.1674847899
 H     -0.7119058590      2.4428130917      0.6670046764
 O      4.4724874282     -1.7644645119      0.3203270171
 H      4.1882158208     -2.5258111719      0.8101596556
 H      5.3772419342     -1.5181590000      0.5744885515
 O     -2.0239706339      1.1487076980     -3.6939652730
 H     -2.3847737434      0.2510728996     -3.6999273731
 H     -1.7118514587      1.2819640198     -4.5421820484
 O     -3.5508077317      2.3072560186     -0.3793002320
 H     -3.9336340788      2.7648548388      0.3404526535
 H     -3.5882700079      2.9275610846     -1.1000983840
 O      2.9636939016     -0.1625721785      2.1676990277
 H      3.4994221332     -0.5972365945      1.4824350615
 H      3.5690817876      0.2648083800      2.7878905865
 O     -4.1816390383     -0.3961389912     -1.5809684216
 H     -4.8802989352     -0.5442756166     -2.1647650171
 H     -4.1991640009      0.5739382470     -1.3752746148
 O      2.1005636497      1.9179406660     -2.7922284506
 H      2.0669740694      2.8542602596     -3.0124312501
 H      2.6390176192      1.5120707420     -3.4210304737
43
# ORCA AIMD Position Step 181, t=90.50 fs, E_Pot=-170964.71982172 kJ mol^-1, Unit is Angstrom
Zn     -0.0201475772     -0.0227919644      0.0186674555
 N      0.2144062650     -0.8908087032      1.9007097533
 C     -0.8691688399     -1.8739125742      2.1247399995
 C     -2.0940417946     -1.4931181212      1.2587859213
 N     -1.6816406212     -1.1886644468     -0.0712629745
 H      1.1194242562     -1.2655482699      2.2112413738
 H      0.0463531261     -0.0252247031      2.4916789773
 H     -0.5737984746     -2.8672549506      1.7249548414
 H     -1.2006569352     -2.0322103766      3.1240990601
 H     -2.5211750982     -0.6097198924      1.7979428322
 H     -2.8086988281     -2.2685548918      1.3435323156
 H     -1.4549791341     -2.0160089463     -0.5688998146
 H     -2.4442862703     -0.7498107682     -0.6092974001
 O     -0.1158606615      0.5813038662     -1.8633972387
 H     -0.8627957064      0.6774534065     -2.4583063332
 H      0.6505487091      1.0345323797     -2.2873087067
 O      1.5203220495      1.3059648485      0.2045736329
 H      2.0236380414      1.5271869167     -0.5492783477
 H      2.0937228664      1.1533380400      0.9672581869
 O      1.6088780756     -1.3393622464     -0.6996368726
 H      1.9307315777     -1.1077441650     -1.5557403641
 H      2.4160749061     -1.6436484014     -0.2531674550
 O     -1.1340105846      1.5975715050      0.6820500034
 H     -1.9618431197      1.7505091902      0.1654613662
 H     -0.7106871731      2.4377960106      0.6694808286
 O      4.4742855009     -1.7629362656      0.3226738359
 H      4.1945493423     -2.5267756630      0.8062420211
 H      5.3801982201     -1.5143120929      0.5693504581
 O     -2.0253717431      1.1512863207     -3.6965146027
 H     -2.3804209362      0.2611991310     -3.7007970451
 H     -1.7146468143      1.2919422338     -4.5417191351
 O     -3.5516666774      2.3063705349     -0.3766209774
 H     -3.9374438842      2.7578340268      0.3410618580
 H     -3.5876578844      2.9173558591     -1.1067256646
 O      2.9638594249     -0.1630332230      2.1674918401
 H      3.5010998246     -0.5952370967      1.4813899112
 H      3.5719841771      0.2615572130      2.7832410351
 O     -4.1833551426     -0.3970865228     -1.5817907460
 H     -4.8820709577     -0.5271840273     -2.1654839815
 H     -4.2007585507      0.5726662470     -1.3787904688
 O      2.1007258424      1.9155475786     -2.7948208128
 H      2.0756677688      2.8543208415     -3.0135409973
 H      2.6385517213      1.5043329686     -3.4235854294
43
# ORCA AIMD Position Step 182, t=91.00 fs, E_Pot=-170969.53882455 kJ mol^-1, Unit is Angstrom
Zn     -0.0198219102     -0.0217334081      0.0180157522
 N      0.2132210454     -0.8919353362      1.9000094337
 C     -0.8694471107     -1.8740022043      2.1267376374
 C     -2.0944295572     -1.4918533159      1.2583488862
 N     -1.6804970429     -1.1899450700     -0.0712380715
 H      1.1137493041     -1.2753172265      2.2220374399
 H      0.0567547414     -0.0225326580      2.4934537062
 H     -0.5868579160     -2.8708066212      1.7228728425
 H     -1.2080601032     -2.0359259155      3.1405639564
 H     -2.5191937389     -0.6043503101      1.8008094457
 H     -2.8127800635     -2.2865236046      1.3524580113
 H     -1.4577376219     -2.0150833196     -0.5779257126
 H     -2.4366073085     -0.7589505684     -0.6126859177
 O     -0.1150504005      0.5812634818     -1.8627495841
 H     -0.8763433139      0.6896371327     -2.4705570894
 H      0.6498298324      1.0253564083     -2.2829234876
 O      1.5187562952      1.3044862640      0.2048397282
 H      2.0368214047      1.5300758107     -0.5550043803
 H      2.0978616476      1.1553339460      0.9730359817
 O      1.6106872833     -1.3395046103     -0.6986452052
 H      1.9264800034     -1.1147763199     -1.5484512365
 H      2.4113407509     -1.6465575972     -0.2492971610
 O     -1.1341192591      1.5989572647      0.6832917634
 H     -1.9609423725      1.7425202604      0.1639672895
 H     -0.7078985495      2.4349635804      0.6721546359
 O      4.4761373588     -1.7612348366      0.3250236603
 H      4.2012673644     -2.5295008729      0.8032697262
 H      5.3821759733     -1.5112605993      0.5638262950
 O     -2.0269105005      1.1538150638     -3.6987267876
 H     -2.3767141112      0.2708521498     -3.7014300469
 H     -1.7151445829      1.3035785549     -4.5474120877
 O     -3.5524544233      2.3053404012     -0.3740528165
 H     -3.9429070371      2.7521570082      0.3448538623
 H     -3.5867964982      2.9076477390     -1.1146098381
 O      2.9640519435     -0.1634621033      2.1672862228
 H      3.5028996867     -0.5932251231      1.4802873026
 H      3.5745996490      0.2579230943      2.7782753146
 O     -4.1848472377     -0.3978372111     -1.5824174525
 H     -4.8878223398     -0.5110538204     -2.1693506409
 H     -4.2019710174      0.5693672601     -1.3822485911
 O      2.1007323061      1.9132695508     -2.7972447647
 H      2.0842803302      2.8540977783     -3.0144875335
 H      2.6407906184      1.4943946086     -3.4293430440
43
# ORCA AIMD Position Step 183, t=91.50 fs, E_Pot=-170973.57676196 kJ mol^-1, Unit is Angstrom
Zn     -0.0194904141     -0.0206920840      0.0173776339
 N      0.2119757810     -0.8929325064      1.8995113925
 C     -0.8696930238     -1.8742126458      2.1284152611
 C     -2.0948040539     -1.4903948422      1.2583536883
 N     -1.6793615273     -1.1909838493     -0.0713377262
 H      1.1068597449     -1.2842549054      2.2321396202
 H      0.0673064521     -0.0232998054      2.4935523472
 H     -0.5986965007     -2.8730546039      1.7215995234
 H     -1.2148924660     -2.0388944729      3.1578413505
 H     -2.5169814617     -0.5999699844      1.8013973831
 H     -2.8179243904     -2.3053919588      1.3608699623
 H     -1.4599615747     -2.0165360829     -0.5875869390
 H     -2.4291189982     -0.7681929841     -0.6154523487
 O     -0.1142439603      0.5811967024     -1.8621281122
 H     -0.8894585135      0.7023145670     -2.4825332189
 H      0.6487810369      1.0164010266     -2.2783805049
 O      1.5171284660      1.3030035942      0.2052400719
 H      2.0513429404      1.5334168956     -0.5622523663
 H      2.1021793517      1.1569964860      0.9783660433
 O      1.6124307796     -1.3397044934     -0.6974777940
 H      1.9229100543     -1.1208538025     -1.5446925073
 H      2.4062222432     -1.6491990428     -0.2450881619
 O     -1.1343550901      1.6001729900      0.6844814129
 H     -1.9597774748      1.7344118272      0.1630245454
 H     -0.7035403303      2.4346684584      0.6749196010
 O      4.4779949493     -1.7593934201      0.3273211934
 H      4.2082429364     -2.5339750221      0.8013340843
 H      5.3832654805     -1.5090569709      0.5580892303
 O     -2.0285137170      1.1563037474     -3.7005928829
 H     -2.3740769713      0.2789316938     -3.7018919617
 H     -1.7136080491      1.3164920997     -4.5584109968
 O     -3.5531530547      2.3041913850     -0.3716596025
 H     -3.9498755799      2.7479816292      0.3515408639
 H     -3.5857541909      2.8985364638     -1.1232329967
 O      2.9642612384     -0.1638581255      2.1670721476
 H      3.5047172914     -0.5912745978      1.4791327946
 H      3.5770325095      0.2541505918      2.7733469564
 O     -4.1861113189     -0.3983913632     -1.5828608931
 H     -4.8971233274     -0.4962597706     -2.1760617107
 H     -4.2026479081      0.5643948968     -1.3853934255
 O      2.1006196278      1.9111375614     -2.7994910825
 H      2.0926484076      2.8534118224     -3.0152429221
 H      2.6451091578      1.4829243147     -3.4375207255
43
# ORCA AIMD Position Step 184, t=92.00 fs, E_Pot=-170974.40618989 kJ mol^-1, Unit is Angstrom
Zn     -0.0191493307     -0.0196572306      0.0167463911
 N      0.2106782366     -0.8938316781      1.8992219801
 C     -0.8699597631     -1.8745505248      2.1298695612
 C     -2.0952310192     -1.4888098812      1.2588156419
 N     -1.6781932615     -1.1918442120     -0.0715589476
 H      1.0986943900     -1.2923841031      2.2415003427
 H      0.0779404573     -0.0274519222      2.4920121927
 H     -0.6093025880     -2.8739846993      1.7212059910
 H     -1.2208357181     -2.0409699828      3.1749188291
 H     -2.5145713420     -0.5967106546      1.7996263900
 H     -2.8233330560     -2.3241722073      1.3686780148
 H     -1.4616854368     -2.0200593658     -0.5976183481
 H     -2.4222371877     -0.7772536458     -0.6178496697
 O     -0.1135391873      0.5810967126     -1.8615697289
 H     -0.9010745027      0.7154478314     -2.4934393563
 H      0.6478287328      1.0078509467     -2.2739079602
 O      1.5155126584      1.3015246262      0.2057204652
 H      2.0663105309      1.5368001740     -0.5696793827
 H      2.1062978014      1.1584060481      0.9828138325
 O      1.6140898749     -1.3399668931     -0.6960888325
 H      1.9202664014     -1.1258999960     -1.5450778377
 H      2.4009688024     -1.6516969061     -0.2403763475
 O     -1.1347092522      1.6012277332      0.6856370078
 H     -1.9583827341      1.7262502689      0.1625873621
 H     -0.6977054746      2.4368258911      0.6777521070
 O      4.4798581956     -1.7574059296      0.3295920754
 H      4.2156244501     -2.5400752654      0.8003081713
 H      5.3837193189     -1.5076253650      0.5521556664
 O     -2.0301424953      1.1588442291     -3.7022210124
 H     -2.3727462508      0.2847895491     -3.7022909018
 H     -1.7106083074      1.3304817583     -4.5732626709
 O     -3.5537824546      2.3029346655     -0.3694059805
 H     -3.9581647495      2.7450606238      0.3605628852
 H     -3.5845756425      2.8897573491     -1.1322235986
 O      2.9644822306     -0.1642348141      2.1668318189
 H      3.5065022723     -0.5893943513      1.4779016885
 H      3.5794885028      0.2503779214      2.7686673161
 O     -4.1872231997     -0.3987869389     -1.5831829839
 H     -4.9091878704     -0.4825888741     -2.1849801203
 H     -4.2026922847      0.5581423404     -1.3880608211
 O      2.1004396292      1.9090950845     -2.8016434666
 H      2.1008820455      2.8521175148     -3.0158252679
 H      2.6507122044      1.4704859204     -3.4472362892
43
# ORCA AIMD Position Step 185, t=92.50 fs, E_Pot=-170970.76061489 kJ mol^-1, Unit is Angstrom
Zn     -0.0187988087     -0.0186305993      0.0161228766
 N      0.2093459057     -0.8946618416      1.8991414643
 C     -0.8702935162     -1.8750128093      2.1311683236
 C     -2.0957579971     -1.4871814466      1.2597395300
 N     -1.6769622677     -1.1925888903     -0.0719023792
 H      1.0893856187     -1.2996779104      2.2499832970
 H      0.0884297855     -0.0346895624      2.4890046051
 H     -0.6185232756     -2.8736285191      1.7217448647
 H     -1.2255475445     -2.0420004687      3.1907309147
 H     -2.5120635079     -0.5946526089      1.7954944780
 H     -2.8282646800     -2.3417706509      1.3757032535
 H     -1.4629624582     -2.0251585979     -0.6075423825
 H     -2.4164599113     -0.7857550579     -0.6201126704
 O     -0.1130256104      0.5809571002     -1.8611046108
 H     -0.9102700205      0.7288617085     -2.5025731020
 H      0.6474276906      0.9999905087     -2.2697874541
 O      1.5139940501      1.3000735403      0.2062270334
 H      2.0807325642      1.5398177255     -0.5760221853
 H      2.1098471974      1.1596038594      0.9859655318
 O      1.6156370653     -1.3402848164     -0.6944810387
 H      1.9186422015     -1.1299214941     -1.5496944208
 H      2.3958880161     -1.6541377160     -0.2350697950
 O     -1.1351572980      1.6021360797      0.6867637618
 H     -1.9568317164      1.7182088104      0.1626015055
 H     -0.6907161509      2.4410223004      0.6805932700
 O      4.4816963559     -1.7553013835      0.3318405272
 H      4.2235247099     -2.5474474411      0.7999807069
 H      5.3838599631     -1.5068866979      0.5461214525
 O     -2.0317370135      1.1614889156     -3.7037193517
 H     -2.3728702684      0.2879592822     -3.7027456501
 H     -1.7068781325      1.3450651537     -4.5900022554
 O     -3.5543639602      2.3016067105     -0.3672705987
 H     -3.9673462577      2.7430360677      0.3709952106
 H     -3.5833217237      2.8811331223     -1.1410560408
 O      2.9647077779     -0.1646005690      2.1665504926
 H      3.5081819963     -0.5876147167      1.4765881502
 H      3.5821389702      0.2467786115      2.7644944536
 O     -4.1882629014     -0.3990643463     -1.5834584075
 H     -4.9227897087     -0.4699819523     -2.1951101406
 H     -4.2020205969      0.5511844381     -1.3900393580
 O      2.1002501775      1.9071024810     -2.8037632963
 H      2.1089908110      2.8501360805     -3.0162593932
 H      2.6566763702      1.4578610860     -3.4574174066
43
# ORCA AIMD Position Step 186, t=93.00 fs, E_Pot=-170963.30040199 kJ mol^-1, Unit is Angstrom
Zn     -0.0184433534     -0.0176263879      0.0155153797
 N      0.2080075056     -0.8954519160      1.8992561148
 C     -0.8707300199     -1.8755817217      2.1323540265
 C     -2.0964090963     -1.4856075362      1.2611022175
 N     -1.6756564567     -1.1932763263     -0.0723669945
 H      1.0792975035     -1.3060894638      2.2573947050
 H      0.0983972973     -0.0443734982      2.4848910564
 H     -0.6261137936     -2.8721101921      1.7232140307
 H     -1.2287148186     -2.0418698034      3.2042282587
 H     -2.5096272478     -0.5937792762      1.7891634141
 H     -2.8320759012     -2.3570642953      1.3817133538
 H     -1.4638606994     -2.0311716853     -0.6167199819
 H     -2.4122824232     -0.7932727415     -0.6224289082
 O     -0.1127766424      0.5807748147     -1.8607564468
 H     -0.9163189810      0.7422311631     -2.5093552063
 H      0.6479913779      0.9931552699     -2.2663145178
 O      1.5126607118      1.2986886669      0.2067089060
 H      2.0936008789      1.5421038124     -0.5802165558
 H      2.1125003180      1.1605981381      0.9874980407
 O      1.6170414476     -1.3406381405     -0.6927143653
 H      1.9179432713     -1.1330400574     -1.5579249800
 H      2.3913128901     -1.6565610927     -0.2291877156
 O     -1.1356585155      1.6029180941      0.6878547034
 H     -1.9552388142      1.7105600702      0.1629909525
 H     -0.6831256286      2.4465263195      0.6833473899
 O      4.4834517248     -1.7531449379      0.3340481206
 H      4.2319797696     -2.5555080713      0.8000650474
 H      5.3840645482     -1.5067430129      0.5401581944
 O     -2.0332281318      1.1642366905     -3.7051774450
 H     -2.3744278893      0.2883342860     -3.7033754286
 H     -1.7031991519      1.3595322142     -4.6064601198
 O     -3.5549172350      2.3002645245     -0.3652484769
 H     -3.9767908366      2.7414967887      0.3816464513
 H     -3.5820717564      2.8726010076     -1.1491068560
 O      2.9649299239     -0.1649579241      2.1662196375
 H      3.5096670097     -0.5859843431      1.4752087587
 H      3.5850869146      0.2435398180      2.7610903328
 O     -4.1893022010     -0.3992659339     -1.5837632500
 H     -4.9364403083     -0.4585369449     -2.2052498938
 H     -4.2005877033      0.5442692095     -1.3911024818
 O      2.1001074398      1.9051417678     -2.8058811817
 H      2.1168846031      2.8474876840     -3.0165806710
 H      2.6620655758      1.4459509399     -3.4669338430
43
# ORCA AIMD Position Step 187, t=93.50 fs, E_Pot=-170954.00821820 kJ mol^-1, Unit is Angstrom
Zn     -0.0180815880     -0.0166413812      0.0149215421
 N      0.2066638162     -0.8962533986      1.8995372841
 C     -0.8713035485     -1.8762395019      2.1334794553
 C     -2.0972010560     -1.4841512192      1.2628831678
 N     -1.6742504967     -1.1939727548     -0.0729603015
 H      1.0687313090     -1.3117559809      2.2637300811
 H      0.1076335847     -0.0557754894      2.4801172090
 H     -0.6320015416     -2.8696212236      1.7255779889
 H     -1.2301885777     -2.0405226522      3.2148501744
 H     -2.5074215414     -0.5939264921      1.7808164638
 H     -2.8343726226     -2.3694331286      1.3866288668
 H     -1.4644775438     -2.0375152224     -0.6246999729
 H     -2.4099788314     -0.7996128943     -0.6249614025
 O     -0.1128339584      0.5805477505     -1.8605335364
 H     -0.9189015252      0.7554711267     -2.5135492422
 H      0.6498163484      0.9874777218     -2.2636450260
 O      1.5115565763      1.2973795493      0.2071343075
 H      2.1043489481      1.5434340983     -0.5816129613
 H      2.1140870983      1.1613975616      0.9872821289
 O      1.6183118293     -1.3410067516     -0.6908484026
 H      1.9178992597     -1.1355583326     -1.5687457736
 H      2.3874232696     -1.6590182919     -0.2227150450
 O     -1.1361746584      1.6036169787      0.6889227522
 H     -1.9537046449      1.7034338875      0.1636684947
 H     -0.6754355536      2.4525600513      0.6859671754
 O      4.4850978261     -1.7509702144      0.3362370481
 H      4.2411553552     -2.5637432376      0.8002420994
 H      5.3847184131     -1.5070735214      0.5343242100
 O     -2.0345905260      1.1671053170     -3.7066924825
 H     -2.3772406654      0.2862563329     -3.7043020909
 H     -1.7001837699      1.3734504483     -4.6210444226
 O     -3.5554717326      2.2989390029     -0.3632962625
 H     -3.9860271966      2.7400107335      0.3915352304
 H     -3.5808838381      2.8639941848     -1.1559671978
 O      2.9651479253     -0.1653129709      2.1658301652
 H      3.5109033375     -0.5845181289      1.4737628135
 H      3.5884197627      0.2407392678      2.7585747604
 O     -4.1904213762     -0.3994378381     -1.5841707562
 H     -4.9490063308     -0.4481620692     -2.2144694900
 H     -4.1983585194      0.5380374662     -1.3910769171
 O      2.1000542837      1.9031640628     -2.8080518244
 H      2.1246076096      2.8442305842     -3.0168413202
 H      2.6662037508      1.4353211349     -3.4750092583
43
# ORCA AIMD Position Step 188, t=94.00 fs, E_Pot=-170945.16699429 kJ mol^-1, Unit is Angstrom
Zn     -0.0177066473     -0.0156577521      0.0143301907
 N      0.2052903246     -0.8971375100      1.8999505155
 C     -0.8720521193     -1.8769727178      2.1346026124
 C     -2.0981503444     -1.4828485182      1.2650833642
 N     -1.6727074081     -1.1947445241     -0.0737032931
 H      1.0578974540     -1.3169413655      2.2691070050
 H      0.1160579802     -0.0681794804      2.4751686206
 H     -0.6361944353     -2.8663653906      1.7288106027
 H     -1.2298956029     -2.0379040639      3.2223621659
 H     -2.5056036147     -0.5948401908      1.7705625634
 H     -2.8349229726     -2.3785948193      1.3904615167
 H     -1.4649096270     -2.0437579224     -0.6311936927
 H     -2.4096553098     -0.8047656199     -0.6278202143
 O     -0.1132216383      0.5802744502     -1.8604391287
 H     -0.9178828878      0.7687004802     -2.5150866013
 H      0.6530846912      0.9829350430     -2.2618128102
 O      1.5106938351      1.2961329761      0.2074861394
 H      2.1127375383      1.5436776874     -0.5798300970
 H      2.1145461322      1.1620007675      0.9853043616
 O      1.6194842124     -1.3413750812     -0.6889259801
 H      1.9181747402     -1.1378621326     -1.5810654859
 H      2.3842647510     -1.6615620579     -0.2155929594
 O     -1.1366749614      1.6042860196      0.6899968970
 H     -1.9523118999      1.6968474244      0.1645575118
 H     -0.6680311328      2.4584451768      0.6884443845
 O      4.4866357848     -1.7487769245      0.3384631532
 H      4.2513418404     -2.5717747687      0.8002084695
 H      5.3861829474     -1.5077718924      0.5285700482
 O     -2.0358349212      1.1701338025     -3.7083624680
 H     -2.3810615639      0.2823273405     -3.7056529186
 H     -1.6982666021      1.3866578736     -4.6327478578
 O     -3.5560618026      2.2976330898     -0.3613442362
 H     -3.9947810219      2.7381899059      0.3999546479
 H     -3.5797972351      2.8550747724     -1.1614139065
 O      2.9653685474     -0.1656738773      2.1653713669
 H      3.5118609003     -0.5832078653      1.4722310703
 H      3.5922049554      0.2383606334      2.7569576387
 O     -4.1917036867     -0.3996227392     -1.5847483273
 H     -4.9597536398     -0.4386468668     -2.2221488551
 H     -4.1952690293      0.5329811035     -1.3898036481
 O      2.1001220626      1.9010956180     -2.8103496768
 H      2.1323146915      2.8404298752     -3.0171015243
 H      2.6686496281      1.4262404382     -3.4811872711
43
# ORCA AIMD Position Step 189, t=94.50 fs, E_Pot=-170939.34849142 kJ mol^-1, Unit is Angstrom
Zn     -0.0173247704     -0.0146925134      0.0137511274
 N      0.2039065093     -0.8981509142      1.9004389838
 C     -0.8729840997     -1.8777375594      2.1357319246
 C     -2.0992307421     -1.4817787066      1.2676239272
 N     -1.6710549370     -1.1956185716     -0.0745958216
 H      1.0474366691     -1.3217564334      2.2734703776
 H      0.1232863219     -0.0803109239      2.4707975157
 H     -0.6385373598     -2.8626994975      1.7327530266
 H     -1.2278101620     -2.0340618011      3.2263940800
 H     -2.5044258414     -0.5961508749      1.7589073515
 H     -2.8335720184     -2.3840557975      1.3930968234
 H     -1.4652208201     -2.0493328018     -0.6357376571
 H     -2.4112902309     -0.8086262722     -0.6309103355
 O     -0.1139341178      0.5799674675     -1.8604811396
 H     -0.9132611291      0.7815818052     -2.5139054943
 H      0.6577124333      0.9795863591     -2.2608274015
 O      1.5101023312      1.2949773420      0.2077407543
 H      2.1183690761      1.5427546339     -0.5747470980
 H      2.1138773113      1.1623623945      0.9817315363
 O      1.6205572757     -1.3417168119     -0.6870565546
 H      1.9184272760     -1.1402518767     -1.5933253549
 H      2.3819157865     -1.6641192718     -0.2080650729
 O     -1.1371137241      1.6049499244      0.6910679218
 H     -1.9511902536      1.6910454943      0.1655571372
 H     -0.6615191127      2.4633765857      0.6906838106
 O      4.4880182110     -1.7466374059      0.3407038769
 H      4.2624511014     -2.5789954581      0.7996984515
 H      5.3886989315     -1.5087283526      0.5230211549
 O     -2.0369402092      1.1732396448     -3.7102069696
 H     -2.3854455179      0.2774635534     -3.7074984090
 H     -1.6978307201      1.3985951489     -4.6404842657
 O     -3.5566961889      2.2963859339     -0.3593959526
 H     -4.0025509690      2.7357985345      0.4060626734
 H     -3.5788881035      2.8459812013     -1.1651252362
 O      2.9655952772     -0.1660327592      2.1648527656
 H      3.5124799115     -0.5820897845      1.4706484470
 H      3.5963045233      0.2364204030      2.7562360681
 O     -4.1931734592     -0.3998470850     -1.5855303813
 H     -4.9677876530     -0.4301481165     -2.2275748002
 H     -4.1913600596      0.5296519665     -1.3871875063
 O      2.1003299683      1.8989406030     -2.8127567335
 H      2.1398845797      2.8363270145     -3.0174130102
 H      2.6690335788      1.4191665744     -3.4849781576
43
# ORCA AIMD Position Step 190, t=95.00 fs, E_Pot=-170938.29099197 kJ mol^-1, Unit is Angstrom
Zn     -0.0169275374     -0.0137248464      0.0131714764
 N      0.2024753358     -0.8993776584      1.9009582974
 C     -0.8741349326     -1.8785152426      2.1369100768
 C     -2.1004460002     -1.4809696511      1.2705118583
 N     -1.6692707997     -1.1966393893     -0.0756714678
 H      1.0375946011     -1.3265248384      2.2769758104
 H      0.1292589980     -0.0913259019      2.4676133191
 H     -0.6390146329     -2.8588777335      1.7373618463
 H     -1.2239181778     -2.0289436882      3.2269645709
 H     -2.5040987095     -0.5974562236      1.7459759395
 H     -2.8302573122     -2.3857528019      1.3945684766
 H     -1.4654696312     -2.0540120707     -0.6381741869
 H     -2.4147248926     -0.8113628154     -0.6341456983
 O     -0.1149676112      0.5796324104     -1.8606663507
 H     -0.9050587936      0.7943032368     -2.5100376665
 H      0.6636023630      0.9772475979     -2.2605461814
 O      1.5097678215      1.2938911946      0.2078923230
 H      2.1212846449      1.5406446421     -0.5663332072
 H      2.1121681291      1.1624358895      0.9767558670
 O      1.6215756653     -1.3420239804     -0.6852655295
 H      1.9183713839     -1.1430804963     -1.6045538991
 H      2.3802627130     -1.6666809684     -0.2001428303
 O     -1.1374692933      1.6056514874      0.6921673611
 H     -1.9504061014      1.6860170060      0.1666150636
 H     -0.6561570090      2.4668973961      0.6926867477
 O      4.4892648540     -1.7445322156      0.3430224114
 H      4.2747661805     -2.5851879689      0.7984916109
 H      5.3924658416     -1.5098906800      0.5175488091
 O     -2.0379410419      1.1764505906     -3.7122941846
 H     -2.3900825063      0.2724805569     -3.7099549049
 H     -1.6990877899      1.4092806664     -4.6438953705
 O     -3.5574011736      2.2951758686     -0.3573842554
 H     -4.0092635755      2.7326210845      0.4095090874
 H     -3.5781901417      2.8365714274     -1.1670842044
 O      2.9658442863     -0.1663926403      2.1642694609
 H      3.5127411430     -0.5811512548      1.4689908515
 H      3.6006625103      0.2347996668      2.7562867059
 O     -4.1948926932     -0.4001313293     -1.5865618812
 H     -4.9728253656     -0.4224836458     -2.2304898744
 H     -4.1865416658      0.5282315469     -1.3831075888
 O      2.1006914928      1.8966282945     -2.8153340223
 H      2.1474892814      2.8320408969     -3.0178378843
 H      2.6672179617      1.4140883374     -3.4862929238
43
# ORCA AIMD Position Step 191, t=95.50 fs, E_Pot=-170942.80690370 kJ mol^-1, Unit is Angstrom
Zn     -0.0165205544     -0.0127687405      0.0125993056
 N      0.2010089218     -0.9008550049      1.9014477409
 C     -0.8754975255     -1.8792568796      2.1381284131
 C     -2.1017510545     -1.4804767752      1.2736532567
 N     -1.6674045589     -1.1978037807     -0.0769290215
 H      1.0289658344     -1.3313929001      2.2796437311
 H      0.1337104649     -0.1000439525      2.4663186604
 H     -0.6375707192     -2.8552993496      1.7424266017
 H     -1.2183638295     -2.0226794705      3.2241610940
 H     -2.5048653911     -0.5982588015      1.7323564274
 H     -2.8250960913     -2.3836231292      1.3948536543
 H     -1.4656819754     -2.0575023222     -0.6383120960
 H     -2.4195784832     -0.8131004519     -0.6372397559
 O     -0.1162698678      0.5792890261     -1.8609963572
 H     -0.8936565881      0.8066191186     -2.5036874256
 H      0.6703354032      0.9757683528     -2.2607710423
 O      1.5096776957      1.2928903997      0.2079335797
 H      2.1215339826      1.5374516127     -0.5550121118
 H      2.1096331371      1.1621457484      0.9708474008
 O      1.6225462689     -1.3422822121     -0.6836289770
 H      1.9177875159     -1.1465513712     -1.6135571708
 H      2.3791944110     -1.6691178064     -0.1921543951
 O     -1.1377130930      1.6063995415      0.6932862903
 H     -1.9500376341      1.6819313914      0.1676607989
 H     -0.6523212910      2.4685616439      0.6943843707
 O      4.4903598064     -1.7425091286      0.3453985754
 H      4.2881068363     -2.5900064427      0.7964623254
 H      5.3974319508     -1.5111983664      0.5121867133
 O     -2.0388405827      1.1796789717     -3.7146045695
 H     -2.3945207277      0.2683316840     -3.7130464887
 H     -1.7021253496      1.4184101745     -4.6427320941
 O     -3.5581724964      2.2940142984     -0.3553182990
 H     -4.0146961153      2.7286436917      0.4099806809
 H     -3.5777617868      2.8271032273     -1.1672981715
 O      2.9661261689     -0.1667411971      2.1636397668
 H      3.5126191318     -0.5804163173      1.4672924423
 H      3.6050167702      0.2334050784      2.7569422839
 O     -4.1968515267     -0.4004706982     -1.5878399497
 H     -4.9745764950     -0.4157677642     -2.2306717437
 H     -4.1808841052      0.5287408469     -1.3776184238
 O      2.1011996393      1.8941763755     -2.8180416369
 H      2.1550235616      2.8278506323     -3.0184179914
 H      2.6632567953      1.4110644240     -3.4851456131
43
# ORCA AIMD Position Step 192, t=96.00 fs, E_Pot=-170952.25229188 kJ mol^-1, Unit is Angstrom
Zn     -0.0161032759     -0.0118227930      0.0120335607
 N      0.1994977142     -0.9026205626      1.9018657225
 C     -0.8770749607     -1.8799262249      2.1393852494
 C     -2.1031129337     -1.4803288832      1.2769961738
 N     -1.6654856614     -1.1991106239     -0.0783801295
 H      1.0219162945     -1.3365480144      2.2815505846
 H      0.1365333194     -0.1057271527      2.4673925041
 H     -0.6341966981     -2.8522828331      1.7478030568
 H     -1.2113001906     -2.0153518494      3.2182755978
 H     -2.5069363798     -0.5980839237      1.7184332888
 H     -2.8182715187     -2.3778084753      1.3939834649
 H     -1.4658638798     -2.0597247308     -0.6361212037
 H     -2.4254205085     -0.8140689992     -0.6399057400
 O     -0.1177867730      0.5789517566     -1.8614699712
 H     -0.8794914764      0.8185348196     -2.4951277851
 H      0.6774947584      0.9749102071     -2.2612456175
 O      1.5097960714      1.2919693163      0.2078682436
 H      2.1194191855      1.5333323132     -0.5413287677
 H      2.1065428057      1.1614016854      0.9645169376
 O      1.6234905978     -1.3424876295     -0.6821758762
 H      1.9165387065     -1.1508430490     -1.6195900135
 H      2.3785208728     -1.6713246521     -0.1843249965
 O     -1.1378320534      1.6072032199      0.6944310706
 H     -1.9501159345      1.6788521821      0.1686651592
 H     -0.6501805569      2.4681780951      0.6957504625
 O      4.4913202584     -1.7405718039      0.3478461019
 H      4.3024348135     -2.5933459131      0.7935442275
 H      5.4034510246     -1.5126354406      0.5068487204
 O     -2.0396630468      1.1828906258     -3.7171324487
 H     -2.3984378673      0.2657577643     -3.7168135792
 H     -1.7069238858      1.4259551247     -4.6371503547
 O     -3.5590095034      2.2928822804     -0.3531815011
 H     -4.0188632934      2.7239124634      0.4074644204
 H     -3.5776420735      2.8177473324     -1.1659493081
 O      2.9664564777     -0.1670704580      2.1629752918
 H      3.5121066983     -0.5798927083      1.4655608059
 H      3.6091445120      0.2320932933      2.7579971250
 O     -4.1990499705     -0.4008484615     -1.5893599197
 H     -4.9730928083     -0.4099822245     -2.2281577015
 H     -4.1743980530      0.5309082363     -1.3707845995
 O      2.1018413053      1.8915774299     -2.8208678297
 H      2.1624982236      2.8239518675     -3.0191876278
 H      2.6573653119      1.4098977227     -3.4817949542
43
# ORCA AIMD Position Step 193, t=96.50 fs, E_Pot=-170964.26139863 kJ mol^-1, Unit is Angstrom
Zn     -0.0156802553     -0.0108968730      0.0114800493
 N      0.1979534600     -0.9046633783      1.9021853293
 C     -0.8788431886     -1.8804824276      2.1406503999
 C     -2.1044772511     -1.4805373688      1.2804490270
 N     -1.6635706720     -1.2005309874     -0.0800123569
 H      1.0167794526     -1.3420514358      2.2827322898
 H      0.1376573095     -0.1079882255      2.4710247546
 H     -0.6289655312     -2.8501272004      1.7532928052
 H     -1.2030299461     -2.0071608816      3.2098626057
 H     -2.5104433074     -0.5965243736      1.7047195512
 H     -2.8101671780     -2.3686977272      1.3920271169
 H     -1.4659938539     -2.0607176455     -0.6317156827
 H     -2.4317059278     -0.8145144076     -0.6418159232
 O     -0.1194311395      0.5786356877     -1.8620713798
 H     -0.8633712978      0.8299824435     -2.4848840206
 H      0.6845520091      0.9744295081     -2.2616900628
 O      1.5100690020      1.2911287220      0.2077116049
 H      2.1154788019      1.5285778197     -0.5262419499
 H      2.1032605257      1.1601098437      0.9584306558
 O      1.6244153315     -1.3426386953     -0.6809340628
 H      1.9145859982     -1.1560137968     -1.6221255098
 H      2.3780390090     -1.6731675554     -0.1769711874
 O     -1.1378221643      1.6080508850      0.6955919556
 H     -1.9506331972      1.6768544885      0.1696150063
 H     -0.6497998666      2.4657640417      0.6967537106
 O      4.4921630111     -1.7387364593      0.3503459000
 H      4.3174954747     -2.5952087511      0.7897826334
 H      5.4101768039     -1.5141877886      0.5014890773
 O     -2.0404262813      1.1860185661     -3.7198223684
 H     -2.4015458219      0.2653374554     -3.7212297318
 H     -1.7132808002      1.4319103328     -4.6277219875
 O     -3.5598939102      2.2917644310     -0.3509898264
 H     -4.0218621995      2.7186368171      0.4022157923
 H     -3.5778621129      2.8088341264     -1.1633607048
 O      2.9668459560     -0.1673682838      2.1622962686
 H      3.5112160953     -0.5795938505      1.4638219571
 H      3.6127747060      0.2307330125      2.7592244305
 O     -4.2014443270     -0.4012302944     -1.5910815263
 H     -4.9687020789     -0.4051652554     -2.2232264645
 H     -4.1671924306      0.5342181756     -1.3628172852
 O      2.1025844398      1.8888682690     -2.8237548230
 H      2.1698297966      2.8205445652     -3.0201529645
 H      2.6500128436      1.4102334727     -3.4767590419
43
# ORCA AIMD Position Step 194, t=97.00 fs, E_Pot=-170975.38854954 kJ mol^-1, Unit is Angstrom
Zn     -0.0152463263     -0.0099791313      0.0109317233
 N      0.1963573753     -0.9069874088      1.9024120491
 C     -0.8808092553     -1.8809044687      2.1419078186
 C     -2.1058175218     -1.4810906743      1.2840030268
 N     -1.6616723955     -1.2020578079     -0.0818409636
 H      1.0136107039     -1.3480046874      2.2832256937
 H      0.1371209925     -0.1070028713      2.4771455078
 H     -0.6218882113     -2.8489896120      1.7588488101
 H     -1.1937338948     -1.9981492993      3.1994929025
 H     -2.5155091886     -0.5932736500      1.6913386841
 H     -2.8011140745     -2.3566786616      1.3890428082
 H     -1.4660278966     -2.0606946743     -0.6252357427
 H     -2.4380383758     -0.8146971905     -0.6427198895
 O     -0.1211405441      0.5783418732     -1.8627858197
 H     -0.8459645935      0.8412573050     -2.4734295208
 H      0.6911705908      0.9740801170     -2.2618456207
 O      1.5104332356      1.2903443669      0.2074893748
 H      2.1103860945      1.5234554445     -0.5106097617
 H      2.1000944777      1.1581439497      0.9531386825
 O      1.6253436807     -1.3427415165     -0.6798836812
 H      1.9119282442     -1.1621689309     -1.6210201599
 H      2.3775433320     -1.6745674828     -0.1702107892
 O     -1.1376906185      1.6089391762      0.6967836595
 H     -1.9515535712      1.6759352418      0.1705476270
 H     -0.6510935020      2.4614972432      0.6973998582
 O      4.4929332343     -1.7369663521      0.3529329721
 H      4.3333397826     -2.5957962586      0.7852122376
 H      5.4173276266     -1.5158843190      0.4959256841
 O     -2.0411692530      1.1890753639     -3.7226590686
 H     -2.4037278675      0.2674037245     -3.7263453794
 H     -1.7209963734      1.4365457512     -4.6151959004
 O     -3.5608200562      2.2906107294     -0.3487168634
 H     -4.0239998671      2.7130105344      0.3946166880
 H     -3.5784450283      2.8005139317     -1.1599011392
 O      2.9673115036     -0.1676304324      2.1616063245
 H      3.5099540583     -0.5795248226      1.4620581436
 H      3.6157518178      0.2291754392      2.7604421559
 O     -4.2040271165     -0.4015828437     -1.5929862588
 H     -4.9619162708     -0.4012204157     -2.2162755505
 H     -4.1592365098      0.5380850338     -1.3538007884
 O      2.1034028845      1.8860377247     -2.8266997468
 H      2.1771002143      2.8176830495     -3.0213206269
 H      2.6416832033      1.4115477969     -3.4706607930
43
# ORCA AIMD Position Step 195, t=97.50 fs, E_Pot=-170981.67591041 kJ mol^-1, Unit is Angstrom
Zn     -0.0148060658     -0.0090786801      0.0103941840
 N      0.1947324489     -0.9095211909      1.9025679147
 C     -0.8829297376     -1.8811677286      2.1430963968
 C     -2.1070731058     -1.4819396213      1.2875750543
 N     -1.6598454022     -1.2036422795     -0.0838323176
 H      1.0124150530     -1.3542879337      2.2830075952
 H      0.1350111990     -0.1033630554      2.4852817400
 H     -0.6131592604     -2.8489628256      1.7643336288
 H     -1.1838454090     -1.9885755397      3.1881341578
 H     -2.5220665437     -0.5882478376      1.6786367822
 H     -2.7917722783     -2.3425659786      1.3851662178
 H     -1.4658941124     -2.0599925612     -0.6170403587
 H     -2.4439212455     -0.8148505624     -0.6423846699
 O     -0.1228044000      0.5780694343     -1.8635702817
 H     -0.8285425350      0.8525108780     -2.4616658171
 H      0.6969207161      0.9736541504     -2.2614754561
 O      1.5108080972      1.2896059374      0.2072463619
 H      2.1051057176      1.5184138995     -0.4958401686
 H      2.0974021960      1.1554145091      0.9492872541
 O      1.6262714180     -1.3428018747     -0.6790156493
 H      1.9086880383     -1.1692272868     -1.6163978428
 H      2.3768746185     -1.6754254147     -0.1642831311
 O     -1.1374557158      1.6098343180      0.6979921007
 H     -1.9527950875      1.6761075382      0.1715034694
 H     -0.6538461215      2.4558188411      0.6976845770
 O      4.4936617160     -1.7352580621      0.3555810675
 H      4.3496393974     -2.5954099716      0.7800196641
 H      5.4244275551     -1.5177122472      0.4900980911
 O     -2.0419167295      1.1920087130     -3.7255418906
 H     -2.4049012646      0.2720520199     -3.7320869206
 H     -1.7295735940      1.4401439852     -4.6009483779
 O     -3.5617545123      2.2893901512     -0.3463961702
 H     -4.0256495118      2.7074464761      0.3853965538
 H     -3.5793952155      2.7931430035     -1.1560642263
 O      2.9678569419     -0.1678476137      2.1609224491
 H      3.5083600008     -0.5796975162      1.4602882014
 H      3.6178900326      0.2273307134      2.7614775171
 O     -4.2067163265     -0.4018619428     -1.5949990208
 H     -4.9536390466     -0.3981369064     -2.2080508164
 H     -4.1506917529      0.5417911121     -1.3440411188
 O      2.1042436919      1.8831510880     -2.8296230707
 H      2.1842187432      2.8154213060     -3.0226539159
 H      2.6331894375      1.4131532877     -3.4644316675
43
# ORCA AIMD Position Step 196, t=98.00 fs, E_Pot=-170980.83551089 kJ mol^-1, Unit is Angstrom
Zn     -0.0143597970     -0.0081954417      0.0098676399
 N      0.1930923055     -0.9121976472      1.9026944619
 C     -0.8851717206     -1.8812619259      2.1441524495
 C     -2.1081940590     -1.4830066062      1.2911226891
 N     -1.6581214589     -1.2052438395     -0.0859595198
 H      1.0130150373     -1.3607522285      2.2820265789
 H      0.1314643762     -0.0979739619      2.4947964762
 H     -0.6029632911     -2.8500088474      1.7697064320
 H     -1.1737530136     -1.9786281817      3.1768217780
 H     -2.5299836426     -0.5815379521      1.6667343244
 H     -2.7828536223     -2.3272620244      1.3805297810
 H     -1.4654985969     -2.0590734653     -0.6075192023
 H     -2.4489947602     -0.8151760407     -0.6406638687
 O     -0.1243237662      0.5778045367     -1.8643761063
 H     -0.8123828388      0.8641257346     -2.4505386228
 H      0.7015302155      0.9729806786     -2.2603915552
 O      1.5111137405      1.2888915350      0.2070385600
 H      2.1006712028      1.5138892874     -0.4832809936
 H      2.0954327263      1.1518309207      0.9473511123
 O      1.6271960476     -1.3428287023     -0.6782944584
 H      1.9050361659     -1.1771076576     -1.6086867366
 H      2.3759202656     -1.6756870421     -0.1593033726
 O     -1.1371437406      1.6107013612      0.6992131869
 H     -1.9542611896      1.6773516805      0.1725506563
 H     -0.6577324706      2.4493114976      0.6976202746
 O      4.4943873836     -1.7335847362      0.3582857938
 H      4.3662041890     -2.5944677519      0.7743953807
 H      5.4310815422     -1.5196596043      0.4839002945
 O     -2.0427031439      1.1948025444     -3.7283752691
 H     -2.4051082001      0.2791543897     -3.7384143482
 H     -1.7384507891      1.4431796060     -4.5866099795
 O     -3.5626666815      2.2880569161     -0.3440493140
 H     -4.0273177584      2.7023803112      0.3753871095
 H     -3.5807102855      2.7869694516     -1.1523191964
 O      2.9684858254     -0.1680153340      2.1602516445
 H      3.5064712568     -0.5801229843      1.4585100223
 H      3.6190992477      0.2251307539      2.7622225537
 O     -4.2094373354     -0.4020301142     -1.5970490223
 H     -4.9449726205     -0.3958410820     -2.1994424886
 H     -4.1416647041      0.5446848727     -1.3337726826
 O      2.1050561477      1.8802570249     -2.8324675782
 H      2.1911618193      2.8137071541     -3.0241108401
 H      2.6253610682      1.4142754019     -3.4590651274
43
# ORCA AIMD Position Step 197, t=98.50 fs, E_Pot=-170973.53563937 kJ mol^-1, Unit is Angstrom
Zn     -0.0139051762     -0.0073241398      0.0093492733
 N      0.1914460591     -0.9149590515      1.9028423953
 C     -0.8875091733     -1.8811868840      2.1450069145
 C     -2.1091343683     -1.4841906302      1.2946296724
 N     -1.6565171914     -1.2068275058     -0.0881988863
 H      1.0151277630     -1.3672185517      2.2801959015
 H      0.1266250226     -0.0918483590      2.5050092622
 H     -0.5914724393     -2.8519891508      1.7749998976
 H     -1.1638083256     -1.9684430665      3.1666336313
 H     -2.5390774269     -0.5733839108      1.6556053382
 H     -2.7751436357     -2.3117475881      1.3752522912
 H     -1.4647265584     -2.0584867112     -0.5970636174
 H     -2.4530176938     -0.8158351805     -0.6374792370
 O     -0.1256114822      0.5775234096     -1.8651528548
 H     -0.7987255730      0.8766430834     -2.4409875212
 H      0.7048495725      0.9719290395     -2.2584508501
 O      1.5112811583      1.2881746123      0.2069270276
 H      2.0980650030      1.5102681286     -0.4741267641
 H      2.0943056326      1.1473073321      0.9476150588
 O      1.6281123297     -1.3428322793     -0.6776659935
 H      1.9011912971     -1.1857259778     -1.5985623229
 H      2.3746236839     -1.6753313912     -0.1552974413
 O     -1.1367858627      1.6115022974      0.7004489006
 H     -1.9558533317      1.6796422584      0.1737748695
 H     -0.6623561441      2.4426629388      0.6972255814
 O      4.4951503245     -1.7319069165      0.3610562341
 H      4.3829379552     -2.5934497867      0.7685219627
 H      5.4369834970     -1.5217035678      0.4772030677
 O     -2.0435676992      1.1974634565     -3.7310630441
 H     -2.4044872571      0.2884022242     -3.7453161274
 H     -1.7470178117      1.4462597010     -4.5740008274
 O     -3.5635273393      2.2865575657     -0.3416933969
 H     -4.0295926165      2.6982641053      0.3654569143
 H     -3.5823863723      2.7821561611     -1.1490632098
 O      2.9692006868     -0.1681322829      2.1595932057
 H      3.5043202048     -0.5808160167      1.4567085116
 H      3.6193653364      0.2225346941      2.7626341145
 O     -4.2121180964     -0.4020572851     -1.5990679340
 H     -4.9371633201     -0.3942262359     -2.1914435676
 H     -4.1322251407      0.5462157662     -1.3231666815
 O      2.1057946732      1.8773921712     -2.8351926093
 H      2.1979422222      2.8124116806     -3.0256474367
 H      2.6189826669      1.4141374723     -3.4555305772
43
# ORCA AIMD Position Step 198, t=99.00 fs, E_Pot=-170963.73046679 kJ mol^-1, Unit is Angstrom
Zn     -0.0134430116     -0.0064657849      0.0088400505
 N      0.1898179138     -0.9177304997      1.9030622214
 C     -0.8898959308     -1.8809514256      2.1455794388
 C     -2.1098394511     -1.4853603163      1.2980585594
 N     -1.6550551656     -1.2083464687     -0.0905037504
 H      1.0183902062     -1.3734179735      2.2774216455
 H      0.1206825289     -0.0860361538      2.5151670259
 H     -0.5789799414     -2.8546655132      1.7802457749
 H     -1.1544294711     -1.9582227930      3.1587463599
 H     -2.5490250193     -0.5642321971      1.6452540409
 H     -2.7695759612     -2.2972249551      1.3694911475
 H     -1.4634573054     -2.0588364131     -0.5861617299
 H     -2.4558124571     -0.8169413708     -0.6328498893
 O     -0.1265853153      0.5772005124     -1.8658480717
 H     -0.7887793159      0.8905371020     -2.4339238714
 H      0.7067942293      0.9704184349     -2.2555737265
 O      1.5112621518      1.2874374093      0.2069688231
 H      2.0980800119      1.5078680954     -0.4693449177
 H      2.0940096588      1.1418220461      0.9501488428
 O      1.6290000028     -1.3428233924     -0.6770671668
 H      1.8974668210     -1.1948991152     -1.5870441632
 H      2.3730013409     -1.6743710946     -0.1522620026
 O     -1.1364197233      1.6121879504      0.7016919799
 H     -1.9574620104      1.6829320662      0.1752580916
 H     -0.6672275662      2.4366996669      0.6965237883
 O      4.4959798203     -1.7301974818      0.3638805032
 H      4.3996341733     -2.5928633552      0.7626249324
 H      5.4418576972     -1.5237805199      0.4699390727
 O     -2.0445390149      1.1999879131     -3.7334850069
 H     -2.4032682451      0.2992164132     -3.7527294526
 H     -1.7545832603      1.4500220409     -4.5650981396
 O     -3.5643006608      2.2848536880     -0.3393684803
 H     -4.0330590941      2.6955781028      0.3565382508
 H     -3.5844012408      2.7788318447     -1.1466159310
 O      2.9699945871     -0.1681983660      2.1589471003
 H      3.5019576726     -0.5817884068      1.4548806651
 H      3.6187391292      0.2195596125      2.7627280622
 O     -4.2146619355     -0.4019209812     -1.6009705642
 H     -4.9315864029     -0.3931812459     -2.1851549735
 H     -4.1225215750      0.5459321785     -1.3124558346
 O      2.1064165857      1.8746101498     -2.8377467738
 H      2.2045222638      2.8113642944     -3.0272064242
 H      2.6147596124      1.4120727463     -3.4546806946
43
# ORCA AIMD Position Step 199, t=99.50 fs, E_Pot=-170957.04804888 kJ mol^-1, Unit is Angstrom
Zn     -0.0129773250     -0.0056272198      0.0083443826
 N      0.1882442511     -0.9204257084      1.9033968500
 C     -0.8922686635     -1.8805758810      2.1457960382
 C     -2.1102561916     -1.4863680419      1.3013520155
 N     -1.6537592505     -1.2097486600     -0.0928063814
 H      1.0223754241     -1.3790258817      2.2736377703
 H      0.1138834509     -0.0815138766      2.5245174058
 H     -0.5659126729     -2.8577114111      1.7854685448
 H     -1.1460499253     -1.9482236297      3.1542498516
 H     -2.5593732043     -0.5547041604      1.6357226313
 H     -2.7670994239     -2.2849791927      1.3634380735
 H     -1.4615890224     -2.0606951557     -0.5753635134
 H     -2.4572972161     -0.8185490674     -0.6269226040
 O     -0.1271900357      0.5768172293     -1.8664220786
 H     -0.7833972541      0.9060589403     -2.4299722074
 H      0.7073703298      0.9684273610     -2.2517644552
 O      1.5110453358      1.2866754382      0.2072006060
 H      2.1010716547      1.5068389414     -0.4693620564
 H      2.0943853277      1.1354430697      0.9547482191
 O      1.6298251763     -1.3428127833     -0.6764274422
 H      1.8942561603     -1.2043472895     -1.5754883750
 H      2.3711486295     -1.6728642473     -0.1501439307
 O     -1.1360857594      1.6127056175      0.7029265302
 H     -1.9589763665      1.6871336649      0.1770663523
 H     -0.6718092691      2.4322878141      0.6955475837
 O      4.4968913788     -1.7284458842      0.3667269656
 H      4.4159886794     -2.5931739986      0.7569433393
 H      5.4455011032     -1.5257850312      0.4621158714
 O     -2.0456252290      1.2023717929     -3.7355254099
 H     -2.4017755484      0.3107364655     -3.7605391947
 H     -1.7605271789      1.4550054461     -4.5615878087
 O     -3.5649517716      2.2829319649     -0.3371303871
 H     -4.0381853562      2.6947262388      0.3494650939
 H     -3.5867085486      2.7770388867     -1.1451588099
 O      2.9708498420     -0.1682157516      2.1583135570
 H      3.4994554387     -0.5830417816      1.4530380580
 H      3.6173521663      0.2162864442      2.7625842374
 O     -4.2169648722     -0.4016108371     -1.6026694614
 H     -4.9294809490     -0.3925810240     -2.1815697556
 H     -4.1127818118      0.5435385411     -1.3019273339
 O      2.1068936268      1.8719694624     -2.8400826814
 H      2.2108225628      2.8103663233     -3.0287243648
 H      2.6131265410      1.4077028447     -3.4570182221
43
# ORCA AIMD Position Step 200, t=100.00 fs, E_Pot=-170957.25064673 kJ mol^-1, Unit is Angstrom
Zn     -0.0125024942     -0.0047977973      0.0078562854
 N      0.1867271797     -0.9230254193      1.9038857960
 C     -0.8946171062     -1.8800810008      2.1456123207
 C     -2.1103557108     -1.4870993882      1.3045245594
 N     -1.6526159874     -1.2110229520     -0.0950858103
 H      1.0267411640     -1.3838504273      2.2687246933
 H      0.1063393215     -0.0789791117      2.5326228061
 H     -0.5524596865     -2.8608278028      1.7908186223
 H     -1.1388367938     -1.9384656707      3.1538247730
 H     -2.5698567947     -0.5452698884      1.6268458563
 H     -2.7684421366     -2.2758394098      1.3571375809
 H     -1.4590113489     -2.0645535287     -0.5649265504
 H     -2.4575401638     -0.8206933732     -0.6198133924
 O     -0.1274291910      0.5763597307     -1.8668754279
 H     -0.7826939786      0.9235247842     -2.4291681751
 H      0.7066957022      0.9659424646     -2.2470131489
 O      1.5106565765      1.2858790828      0.2076346582
 H      2.1069113093      1.5070867334     -0.4739172037
 H      2.0951588813      1.1281568404      0.9610774363
 O      1.6305659061     -1.3428095156     -0.6756582995
 H      1.8919075567     -1.2139791898     -1.5651504073
 H      2.3691854988     -1.6708716405     -0.1487818942
 O     -1.1358125208      1.6130221688      0.7041627637
 H     -1.9603359374      1.6922319995      0.1792902200
 H     -0.6757179936      2.4300760831      0.6943122818
 O      4.4979100792     -1.7266142807      0.3696246995
 H      4.4320625346     -2.5947381118      0.7515423361
 H      5.4478994005     -1.5276305279      0.4536044655
 O     -2.0468353675      1.2046830762     -3.7371590539
 H     -2.4003637196      0.3221918379     -3.7688033032
 H     -1.7646253099      1.4616294153     -4.5642890817
 O     -3.5654722530      2.2807586300     -0.3349801514
 H     -4.0453446015      2.6959136281      0.3446128759
 H     -3.5893010678      2.7766644629     -1.1446638284
 O      2.9717619800     -0.1681894426      2.1576758195
 H      3.4968384567     -0.5845963785      1.4511570473
 H      3.6153750228      0.2127646326      2.7623358713
 O     -4.2189991280     -0.4011217836     -1.6041383480
 H     -4.9315861039     -0.3922735546     -2.1812268996
 H     -4.1030384650      0.5388581004     -1.2916197994
 O      2.1072326071      1.8694513261     -2.8422309536
 H      2.2169015679      2.8091885187     -3.0301804304
 H      2.6140789738      1.4009395559     -3.4626089992
