61
# ORCA AIMD Velocity Step 0, t=0.00 fs, E_Pot=-266377.21362912 kJ mol^-1, Unit is Angstrom fs^-1
Zn      0.0003656627     -0.0020802629      0.0004899146
 O     -0.0004486378      0.0010470654     -0.0033944548
 H     -0.0141941250     -0.0083821302     -0.0280196731
 H      0.0080460382      0.0244668890      0.0166133688
 O     -0.0092023567      0.0024226314     -0.0007311753
 H      0.0064894172      0.0093469432      0.0122414828
 H     -0.0078769609     -0.0098745584      0.0398643393
 O      0.0039823496      0.0000299898     -0.0002344780
 H      0.0089213486     -0.0030748643      0.0274484785
 H      0.0006804249      0.0280045066     -0.0004994537
 O     -0.0044507047     -0.0044471364     -0.0035517396
 H     -0.0143799290      0.0175164127      0.0016972853
 H      0.0203024036      0.0034632711     -0.0226198504
 O     -0.0015294462     -0.0016000325      0.0021823193
 H      0.0284463787      0.0102133153      0.0235615103
 H     -0.0046972296      0.0040625395      0.0211910872
 O      0.0036634361      0.0016674878     -0.0014563054
 H     -0.0076329805     -0.0212378001      0.0187953534
 H      0.0170399136     -0.0030090699     -0.0146672612
 O      0.0010864158      0.0071076984     -0.0067440280
 H     -0.0059025063     -0.0123680284     -0.0265517721
 H      0.0088001940      0.0365896764      0.0033393459
 O      0.0003336812     -0.0010413119     -0.0007551729
 H     -0.0025613399     -0.0080358025      0.0065918728
 H      0.0223973334      0.0013986245      0.0041102559
 O      0.0069293063      0.0018121802      0.0028783517
 H     -0.0093515497     -0.0164083845     -0.0245013719
 H     -0.0211642062      0.0106154459     -0.0160824811
 O      0.0032014053      0.0096232859     -0.0016824416
 H      0.0031016782      0.0110431440      0.0225309049
 H     -0.0010816918     -0.0131686096     -0.0211125926
 O      0.0023467059      0.0033336027      0.0042242002
 H     -0.0152244749     -0.0046429983      0.0275198480
 H      0.0049833045      0.0039815067     -0.0031965494
 O     -0.0043263617      0.0002595686     -0.0014307547
 H      0.0015549169      0.0056590700     -0.0035136702
 H     -0.0038907505     -0.0154637720     -0.0032347047
 O      0.0018974418     -0.0062025549     -0.0029594377
 H     -0.0264384990     -0.0020311433      0.0373814246
 H     -0.0085339837      0.0143207072     -0.0182209606
 O     -0.0003840742     -0.0043865342     -0.0057261267
 H     -0.0063713475     -0.0071561591     -0.0045918875
 H      0.0209797337     -0.0042146973     -0.0186301622
 O     -0.0037665313     -0.0017811409      0.0049008067
 H     -0.0084690524      0.0274498074      0.0059768444
 H      0.0089140759      0.0333780792      0.0042539104
 O     -0.0017939409     -0.0008633139     -0.0021464564
 H      0.0054622307     -0.0088826418      0.0263634064
 H      0.0472754929      0.0032431898      0.0029288895
 O      0.0028820432     -0.0000914175     -0.0023063178
 H      0.0036245694     -0.0107903431     -0.0078457687
 H     -0.0059625877      0.0314196114     -0.0145278838
 O     -0.0021503417     -0.0028336145      0.0076938829
 H     -0.0148591186      0.0063483313     -0.0056657300
 H     -0.0128151017      0.0065113767      0.0195815858
 O      0.0020539147     -0.0053511567      0.0062406715
 H     -0.0124883943     -0.0192383274     -0.0117639766
 H     -0.0210673954     -0.0095484350     -0.0069106466
 O     -0.0027825591      0.0039411143     -0.0025341131
 H     -0.0051897285     -0.0137101220      0.0116169353
 H      0.0284336860     -0.0048703022      0.0063321618
61
# ORCA AIMD Velocity Step 2000, t=500.00 fs, E_Pot=-267177.62151507 kJ mol^-1, Unit is Angstrom fs^-1
Zn     -0.0000579859     -0.0042527396      0.0040186681
 O     -0.0011364155      0.0100297425      0.0070971590
 H      0.0093139730     -0.0232765814     -0.0184536737
 H      0.0211900597      0.0227928268      0.0047086128
 O     -0.0018316760     -0.0062536408     -0.0009451296
 H     -0.0031239528     -0.0061778189      0.0287378206
 H     -0.0008761735     -0.0114708652     -0.0052263688
 O     -0.0034460081      0.0032651959     -0.0031217592
 H      0.0026657869      0.0085922714     -0.0170227018
 H     -0.0180383716     -0.0011412644     -0.0142432411
 O     -0.0074327243      0.0057889718     -0.0117366153
 H      0.0077097557     -0.0057117549     -0.0173798706
 H     -0.0074793089      0.0116216013     -0.0144966648
 O     -0.0037748749      0.0060020398     -0.0005797788
 H     -0.0009121235     -0.0062672733     -0.0023802362
 H      0.0020548217     -0.0005220611      0.0020014742
 O     -0.0066550816     -0.0001298602      0.0006306683
 H     -0.0109368049     -0.0121020054     -0.0008638711
 H     -0.0028403944     -0.0032536854      0.0076886673
 O     -0.0010941475      0.0019417401     -0.0003466593
 H     -0.0057497600      0.0003813035     -0.0006114694
 H      0.0117629911     -0.0059731360     -0.0049574800
 O     -0.0048916311      0.0000095536      0.0046505173
 H     -0.0024252757      0.0052513974     -0.0106735137
 H      0.0214876351      0.0115787104     -0.0258037759
 O     -0.0030475763     -0.0002135197     -0.0034715792
 H     -0.0240491294      0.0178023283      0.0084388325
 H      0.0225878216     -0.0287067643     -0.0079685590
 O     -0.0006211202      0.0034565730      0.0011653806
 H     -0.0036037523      0.0215987515     -0.0224138687
 H      0.0093009963     -0.0287757475     -0.0114702461
 O     -0.0036304264     -0.0026967753     -0.0022890046
 H     -0.0082295083      0.0208118901      0.0035965356
 H     -0.0107155314     -0.0027585529     -0.0327461005
 O     -0.0062195268      0.0096016236      0.0028763573
 H     -0.0095938682      0.0047157367     -0.0353222338
 H     -0.0105515125      0.0126969015     -0.0097937635
 O      0.0044697886      0.0020163252     -0.0097629220
 H     -0.0290491985      0.0082898198     -0.0045268344
 H     -0.0014632588      0.0007662141     -0.0197594961
 O      0.0040303832      0.0004618462      0.0000624318
 H      0.0006321431      0.0113580182      0.0166405293
 H      0.0031377153      0.0209391929     -0.0011295733
 O      0.0044759274      0.0001760625      0.0008540339
 H      0.0036519804      0.0061545444      0.0313199812
 H     -0.0079985252      0.0083702684      0.0179479911
 O      0.0028004022     -0.0046354701      0.0009872836
 H      0.0114136269     -0.0080691792     -0.0222338772
 H      0.0244519429      0.0122652363      0.0030776312
 O      0.0039461392      0.0005774807     -0.0063394054
 H      0.0269451541      0.0128157803      0.0304025075
 H      0.0020598398      0.0159984557      0.0263625837
 O     -0.0004456022     -0.0010626977      0.0000288918
 H     -0.0046326674      0.0238220291     -0.0227132340
 H     -0.0068617833      0.0008369055     -0.0137420002
 O      0.0054584213      0.0088382591      0.0046390061
 H     -0.0118217291      0.0104993904      0.0136998301
 H     -0.0250193629      0.0175852048      0.0227251529
 O      0.0170643243     -0.0031711817     -0.0054072833
 H     -0.0238073389     -0.0043985412     -0.0137889732
 H     -0.0203588583      0.0199772270     -0.0096413807
61
# ORCA AIMD Velocity Step 4000, t=1000.00 fs, E_Pot=-267187.92553631 kJ mol^-1, Unit is Angstrom fs^-1
Zn     -0.0029148392     -0.0005172726      0.0009163842
 O     -0.0005381114      0.0010668297      0.0004518272
 H     -0.0300033020      0.0050704138     -0.0159792684
 H     -0.0010870387      0.0368129386     -0.0196792020
 O     -0.0051118729      0.0004013996     -0.0025686670
 H     -0.0112094706     -0.0215766013      0.0118058159
 H      0.0297272470     -0.0085064650      0.0137282247
 O     -0.0020378905     -0.0017122247     -0.0083717629
 H     -0.0099842153     -0.0480111253     -0.0122997027
 H     -0.0048237893      0.0167492058     -0.0116036803
 O     -0.0046547042     -0.0020935508     -0.0037498415
 H      0.0065411830     -0.0054765761     -0.0023683296
 H     -0.0115107321      0.0125322746     -0.0118484358
 O     -0.0031689315     -0.0016957684     -0.0049468642
 H      0.0006214055     -0.0017916715     -0.0105739316
 H      0.0109847755     -0.0114104547     -0.0067713347
 O     -0.0031229099      0.0033774793      0.0057967990
 H     -0.0050905766      0.0105358818     -0.0012237179
 H      0.0014000073     -0.0079811760      0.0145498064
 O     -0.0035880953      0.0080033624      0.0022386003
 H     -0.0176281507      0.0120344452     -0.0263032581
 H      0.0002891554      0.0360041756      0.0207170748
 O     -0.0040569283     -0.0046239136     -0.0000196047
 H     -0.0150025057     -0.0154920217      0.0057724764
 H     -0.0427685912     -0.0268056314     -0.0073226175
 O      0.0011860448     -0.0023535876      0.0053768738
 H      0.0221292894     -0.0189181725      0.0025421602
 H     -0.0134906396     -0.0119975848      0.0120511178
 O      0.0023640956     -0.0020854961     -0.0062214451
 H      0.0152750982     -0.0193249749      0.0377618913
 H      0.0238080179      0.0156146273     -0.0304939425
 O     -0.0001153000      0.0012969124     -0.0000888033
 H     -0.0119794507     -0.0148462825     -0.0082538641
 H      0.0047696585     -0.0064365292      0.0174235360
 O      0.0006971861     -0.0000640005      0.0001223110
 H      0.0099730742      0.0176211319     -0.0065738254
 H      0.0158777860      0.0146760188      0.0122069981
 O      0.0013384650     -0.0007574794      0.0006199591
 H      0.0042210819     -0.0089083535      0.0120098390
 H     -0.0206033707     -0.0038447178      0.0309514767
 O      0.0033398881     -0.0021779763      0.0007259797
 H     -0.0003433784      0.0097692967     -0.0032975976
 H      0.0103168507      0.0302954296      0.0137285330
 O      0.0099327258      0.0003602660     -0.0050007582
 H     -0.0067384547     -0.0179398871     -0.0172739029
 H      0.0090404293     -0.0109249887     -0.0114770730
 O     -0.0001897239     -0.0029301265     -0.0000048713
 H     -0.0010643153     -0.0025183893      0.0186547600
 H     -0.0120835652     -0.0120112269      0.0041861721
 O     -0.0055632337      0.0041632729      0.0047482665
 H     -0.0022998070     -0.0055743458      0.0052509212
 H     -0.0403969187     -0.0266689687      0.0153447170
 O      0.0009410161     -0.0068174020     -0.0046077921
 H      0.0009627746     -0.0024890817     -0.0031293547
 H     -0.0075166276     -0.0279731654      0.0063336125
 O     -0.0047533876      0.0041751493     -0.0004468710
 H      0.0118486023     -0.0038404210     -0.0088724547
 H     -0.0027971756      0.0127085545     -0.0108983322
 O      0.0016622200     -0.0033940445      0.0013404598
 H      0.0108649053      0.0149096353     -0.0131529693
 H     -0.0118876656     -0.0009872329     -0.0056840036
