9
-15.255996
O  -0.00000000000000000000 0.00000000000000000000 0.00000000000000000000
H  0.75860199999999933240 0.00000000000000000000 0.50428399999999973247
H  -0.75860199999999933240 0.00000000000000000000 0.50428399999999973247
O  -0.07815249130033466440 -1.42512201041238539823 -2.53191915500241027104
H  -0.03168512928911344090 -0.89177912946031379082 -1.72159045909675567643
H  0.11526760317355580487 -2.33055425529336712742 -2.26978173620220990969
O  2.26167248331746284506 0.20753935388704566889 1.82521021153278661941
H  2.50708837451934973828 -0.35379534355931707701 2.56703782681261172272
H  2.91984968615718454288 0.90698151170508622965 1.77450781065688900640
