9
# ORCA AIMD Position Step 0, t=0.00 fs, E_Pot=-29915.83236038 kJ mol^-1, Unit is Angstrom
 C     -0.9014410055      0.1762512551     -0.0329715391
 C      0.4693612584     -0.4920904203     -0.0459637591
 O      1.4625627727      0.2884391739      0.5771703207
 H     -0.8814850006      1.0999065773     -0.6100653115
 H     -1.6436118109     -0.4878934336     -0.4669281575
 H     -1.1923336446      0.4111099473      0.9881002521
 H      0.7606891821     -0.7231796935     -1.0818228866
 H      0.4408164896     -1.4261885342      0.5195363336
 H      1.4854417590      1.1536451281      0.1529447472
9
# ORCA AIMD Position Step 1, t=5.00 fs, E_Pot=-29759.98160299 kJ mol^-1, Unit is Angstrom
 C     -0.8881062152      0.1520269416     -0.0407235730
 C      0.4802326938     -0.4831717910     -0.0508911051
 O      1.4433257576      0.2888982186      0.5585106626
 H     -0.8203078799      1.2209452225     -0.5418740293
 H     -1.8130667203     -0.4394000685     -0.5007600718
 H     -1.1644065103      0.4759571401      1.0327476361
 H      0.7399210397     -0.7801991775     -0.8609578003
 H      0.5132196461     -1.4182817702      0.5221264630
 H      1.5310542509      1.1434702283      0.2977326826
9
# ORCA AIMD Position Step 2, t=10.00 fs, E_Pot=-27620.55592024 kJ mol^-1, Unit is Angstrom
 C     -0.9215070361      0.1738694593     -0.0394960326
 C      0.4168846153     -0.4338014654      0.1262502086
 O      1.4405641554      0.2472445709      0.5769798362
 H     -0.8035431394      0.8376445767     -0.3876731364
 H     -1.4336209865     -0.1232081736     -0.3207712216
 H     -1.0763646169      0.3209965649      0.7403671674
 H      1.4820784347     -1.5567645168     -3.2716978610
 H      0.4642698783     -1.4314492407      0.7073587766
 H      1.5502548757      1.9678509844      0.0629027675
9
# ORCA AIMD Position Step 3, t=15.00 fs, E_Pot=-20707.49489032 kJ mol^-1, Unit is Angstrom
 C      0.1106022947      0.1733469008      0.4129074825
 C      0.4369338059     -0.3807947692      0.3958564237
 O      1.3895199938      0.1895060412      0.5604074381
 H      0.7756716200      8.2609327017     -4.2921755999
 H    -14.3402083419     -8.1937569699     -7.6558728560
 H     -2.1458991099      1.2782860297      6.5418812876
 H      2.2145929630     -2.3273115432     -5.6637690408
 H      0.3802565359     -1.3203233732      0.4377255897
 H      1.5716563541      2.6082867598     -0.1774983955
