9
Coordinates from ORCA-job preparar_etanol E -11.394339385850
  C          -0.90144100150192      0.17625125426761     -0.03297153896772
  C           0.46936125625488     -0.49209041813779     -0.04596375886747
  O           1.46256276612237      0.28843917261435      0.57717031816153
  H          -0.88148499664442      1.09990657237907     -0.61006530877166
  H          -1.64361180355502     -0.48789343144170     -0.46692815539801
  H          -1.19233363929951      0.41110994548345      0.98810024770280
  H           0.76068917865250     -0.72317969030966     -1.08182288177168
  H           0.44081648762406     -1.42618852781151      0.51953633130848
  H           1.48544175234705      1.15364512295618      0.15294474650374
