61
# ORCA AIMD Velocity Step 0, t=0.00 fs, E_Pot=-266623.49120164 kJ mol^-1, Unit is Angstrom fs^-1
Zn      0.0003737979     -0.0020822737      0.0004913276
 O     -0.0003963393      0.0010555304     -0.0033138377
 H     -0.0141586315     -0.0083739493     -0.0279450722
 H      0.0080635967      0.0245398690      0.0166628409
 O     -0.0092248768      0.0024896751     -0.0007489758
 H      0.0064243982      0.0093524596      0.0122301947
 H     -0.0079291071     -0.0097427828      0.0398173160
 O      0.0039675874      0.0000114179     -0.0002696481
 H      0.0089443308     -0.0030672778      0.0274177588
 H      0.0007217764      0.0279492772     -0.0005045268
 O     -0.0044961574     -0.0044406691     -0.0036331887
 H     -0.0144370725      0.0175447078      0.0016055393
 H      0.0202898952      0.0035385258     -0.0227136560
 O     -0.0014823845     -0.0017154820      0.0022070022
 H      0.0285526659      0.0100940497      0.0236068881
 H     -0.0046906059      0.0040081283      0.0211838263
 O      0.0036553915      0.0017439874     -0.0014400472
 H     -0.0076831750     -0.0211856554      0.0188064586
 H      0.0170321637     -0.0030005994     -0.0146295856
 O      0.0010500068      0.0070850585     -0.0068161566
 H     -0.0058747982     -0.0123365597     -0.0266215187
 H      0.0087068144      0.0366083009      0.0032361967
 O      0.0003547204     -0.0010408786     -0.0006940760
 H     -0.0025774277     -0.0080458463      0.0066446316
 H      0.0223922810      0.0013327644      0.0041842995
 O      0.0069234333      0.0018308126      0.0028752503
 H     -0.0094158240     -0.0164394818     -0.0245080429
 H     -0.0211821911      0.0106193093     -0.0160849282
 O      0.0032264787      0.0095806050     -0.0016262215
 H      0.0031979417      0.0109712539      0.0226201172
 H     -0.0011071019     -0.0132556137     -0.0210590641
 O      0.0023751620      0.0033426353      0.0041763067
 H     -0.0151379400     -0.0046161910      0.0274856619
 H      0.0049589427      0.0039393990     -0.0032451490
 O     -0.0043773453      0.0002164973     -0.0013530800
 H      0.0014954300      0.0055960269     -0.0034323570
 H     -0.0039280861     -0.0154267468     -0.0031786727
 O      0.0019711656     -0.0062520334     -0.0029893737
 H     -0.0263210793     -0.0020348439      0.0373523232
 H     -0.0084351471      0.0143015842     -0.0182527899
 O     -0.0003330114     -0.0044550991     -0.0057061898
 H     -0.0063169297     -0.0072525554     -0.0045618436
 H      0.0210214131     -0.0043506183     -0.0185921480
 O     -0.0037828622     -0.0017732991      0.0049130999
 H     -0.0084637208      0.0274153497      0.0060100779
 H      0.0089588874      0.0333825534      0.0042870905
 O     -0.0018360269     -0.0008676657     -0.0020799146
 H      0.0054166578     -0.0089647373      0.0264546044
 H      0.0471707702      0.0032661674      0.0029662630
 O      0.0029062243     -0.0000276378     -0.0023654124
 H      0.0036533508     -0.0106654775     -0.0079233512
 H     -0.0058895998      0.0314333822     -0.0145552035
 O     -0.0020619007     -0.0028245906      0.0076288675
 H     -0.0147407777      0.0063492097     -0.0057187347
 H     -0.0126747284      0.0065767854      0.0195156217
 O      0.0019977163     -0.0052791531      0.0062207016
 H     -0.0125548651     -0.0191083568     -0.0118064633
 H     -0.0211945792     -0.0095228608     -0.0069386331
 O     -0.0029212903      0.0039760117     -0.0025227564
 H     -0.0053729001     -0.0137431087      0.0116362007
 H      0.0282710278     -0.0047789437      0.0063175397
61
# ORCA AIMD Velocity Step 2000, t=500.00 fs, E_Pot=-267125.04635789 kJ mol^-1, Unit is Angstrom fs^-1
Zn      0.0014286891      0.0000843560      0.0013228593
 O     -0.0048909023     -0.0037160981     -0.0017695575
 H     -0.0089279037     -0.0196145261     -0.0038014721
 H     -0.0284972510     -0.0025255900     -0.0111520134
 O     -0.0022651723     -0.0128922120      0.0070338012
 H      0.0179143597     -0.0207091031     -0.0129048573
 H      0.0064066764      0.0029274359      0.0000865303
 O      0.0020391929     -0.0017071986     -0.0010531738
 H      0.0107217131      0.0067383370      0.0321711203
 H      0.0090426616     -0.0271169011      0.0155939806
 O      0.0108740053      0.0005076274     -0.0024093571
 H      0.0119011729     -0.0045086288      0.0117832311
 H      0.0243492389      0.0150565236     -0.0114741965
 O      0.0011590520      0.0011678805     -0.0053240143
 H     -0.0028884691     -0.0167068159      0.0155229665
 H      0.0174176434     -0.0237212470      0.0400375783
 O     -0.0012051850     -0.0031711375      0.0011524563
 H     -0.0004092295     -0.0467254127      0.0009369624
 H     -0.0095205058     -0.0096495011      0.0307480285
 O     -0.0007133321     -0.0005557361     -0.0024505674
 H      0.0007799402      0.0032432714      0.0048776650
 H      0.0121672351      0.0101052972      0.0001226696
 O     -0.0018065748     -0.0061754859      0.0024783843
 H      0.0124760978     -0.0027291706     -0.0137822774
 H     -0.0280945785      0.0092044613      0.0220317317
 O     -0.0031026867     -0.0045200839     -0.0054389863
 H     -0.0144026902     -0.0130953508     -0.0083906199
 H     -0.0075436286     -0.0054227612     -0.0156272569
 O      0.0037404115     -0.0011589629      0.0014106344
 H      0.0199289306     -0.0017395424     -0.0148083103
 H      0.0131992979     -0.0235192647      0.0040646245
 O      0.0024168797     -0.0004558149     -0.0026962832
 H      0.0058341083      0.0097280183      0.0217947473
 H      0.0083019075      0.0025168648      0.0245492042
 O     -0.0004421335     -0.0048447615      0.0015551831
 H      0.0034670846     -0.0164024248     -0.0042811113
 H     -0.0173217314      0.0017387220      0.0135558902
 O     -0.0023331895      0.0036381776     -0.0021360214
 H     -0.0130529114     -0.0085897917      0.0054886614
 H     -0.0015060392     -0.0147449742     -0.0227805896
 O      0.0044844301     -0.0000671552     -0.0088589979
 H     -0.0270095420      0.0186004151     -0.0236487151
 H     -0.0193799799     -0.0073429072      0.0152539929
 O      0.0012116607      0.0051804130     -0.0070766389
 H      0.0178088103     -0.0129581568     -0.0002113351
 H     -0.0283726004      0.0268451200      0.0180590104
 O      0.0011068621     -0.0048230246      0.0056880148
 H     -0.0075368473     -0.0126220146      0.0002749416
 H      0.0329402209     -0.0172781210     -0.0112501100
 O     -0.0035259558      0.0015885555      0.0020695508
 H      0.0131644997     -0.0019580628      0.0051520440
 H     -0.0015038073      0.0064515394      0.0130973353
 O     -0.0002342842     -0.0032100412     -0.0021803053
 H     -0.0069554496      0.0033527017     -0.0287398671
 H      0.0029200801     -0.0173210403      0.0025513632
 O      0.0036327189      0.0027476579      0.0021507613
 H     -0.0119229532     -0.0066186330      0.0134684254
 H     -0.0100399634     -0.0095274334      0.0235909311
 O      0.0020596831     -0.0073902886      0.0004038275
 H      0.0013677963     -0.0002882634     -0.0025977679
 H      0.0187396587     -0.0030939335      0.0112324377
61
# ORCA AIMD Velocity Step 4000, t=1000.00 fs, E_Pot=-267184.49467991 kJ mol^-1, Unit is Angstrom fs^-1
Zn     -0.0061575114     -0.0052673999     -0.0015159196
 O      0.0030870719      0.0010287750     -0.0050519065
 H      0.0031970998      0.0277529884      0.0296681567
 H      0.0096708701     -0.0006277994      0.0017319312
 O     -0.0053696908     -0.0010076649      0.0063803550
 H      0.0050078770     -0.0116041555     -0.0076387448
 H     -0.0142565503      0.0061167591      0.0091482618
 O      0.0027080091      0.0010651907      0.0009641954
 H      0.0200121545     -0.0051493405      0.0027859560
 H     -0.0023930713      0.0365132217      0.0123434275
 O      0.0050372611     -0.0017886506      0.0015441993
 H     -0.0146182377     -0.0232911742      0.0051211961
 H     -0.0056945599     -0.0040358445     -0.0018209651
 O      0.0006948532      0.0071120880      0.0026656438
 H     -0.0044023963      0.0056815360     -0.0329231094
 H     -0.0109935906      0.0075878285      0.0186868241
 O      0.0023724003     -0.0072462306     -0.0014460589
 H     -0.0015143361      0.0050039003     -0.0123846482
 H     -0.0022779973     -0.0097523465      0.0174641106
 O     -0.0065443416      0.0002810391      0.0046975150
 H      0.0316434676      0.0080205716      0.0174789817
 H     -0.0067115602      0.0247381138     -0.0091569014
 O     -0.0038554386     -0.0050523075     -0.0049683808
 H      0.0248003021      0.0069850323      0.0298759725
 H     -0.0134906201     -0.0044456693     -0.0117198442
 O      0.0036349521      0.0016139719     -0.0013903048
 H      0.0167181772      0.0082596195     -0.0134487241
 H     -0.0024014013      0.0287189062     -0.0037727728
 O     -0.0021049041      0.0017731986     -0.0002245278
 H     -0.0053951982     -0.0039274494     -0.0157784331
 H      0.0065711609      0.0064629277     -0.0022652522
 O      0.0039877955     -0.0077870394      0.0010080114
 H      0.0247924972      0.0071386978     -0.0014964385
 H      0.0350040024     -0.0125935580      0.0120678738
 O     -0.0037917552     -0.0000157625     -0.0019668739
 H     -0.0116301150      0.0022758641      0.0036944757
 H      0.0048495282     -0.0131127941      0.0019610589
 O     -0.0018070786     -0.0033650177      0.0054916649
 H     -0.0138789720     -0.0311676277      0.0149883013
 H     -0.0036545970     -0.0102946687     -0.0065132724
 O      0.0073912998      0.0009983643      0.0025858684
 H      0.0123422832      0.0105255652     -0.0303001492
 H      0.0106487987      0.0103400333     -0.0133519375
 O      0.0060335186      0.0045489056     -0.0092498948
 H      0.0016661053      0.0122004015     -0.0129073803
 H      0.0034894410      0.0293050783     -0.0065637361
 O      0.0000727699     -0.0062003910      0.0100648838
 H     -0.0138640143      0.0170434411     -0.0260914770
 H     -0.0130332244      0.0074334909      0.0010659354
 O      0.0001798926     -0.0053940748     -0.0034772481
 H      0.0027939738     -0.0098304528     -0.0205775563
 H     -0.0023786986     -0.0023893272     -0.0059739747
 O      0.0039507015     -0.0002332207      0.0042033375
 H     -0.0031644195     -0.0002682645      0.0180330715
 H      0.0325705336     -0.0024541463     -0.0030361314
 O     -0.0091706375     -0.0018684423     -0.0040881330
 H     -0.0105783653     -0.0141939683      0.0232882993
 H      0.0089993025      0.0060765476      0.0070917879
 O     -0.0014985364      0.0003793722      0.0059830030
 H     -0.0107511534     -0.0165469489     -0.0183087684
 H      0.0057172740      0.0102013104     -0.0059902600
