43
Estado inicial dos dois ramos apos 1100 fs; raio da parede reportado 4.985 A
Zn      0.2225057943     -0.0723523135     -0.4280706957
 N      0.3528514999     -0.6625498067      1.5167196334
 C     -0.7556500080     -1.6424142571      1.6424541480
 C     -1.7744170218     -1.4373378789      0.6088408308
 N     -1.0549179315     -1.5569566768     -0.6845299989
 H      1.2805526183     -1.0269771418      1.7056150231
 H      0.2445663188      0.0884600580      2.1480500584
 H     -0.3688243537     -2.6664294100      1.6238450971
 H     -1.2252981381     -1.5792260059      2.6179798499
 H     -2.2741099346     -0.4473488051      0.6734526999
 H     -2.5869680489     -2.0601341216      0.6980662542
 H     -0.7442684872     -2.4984135302     -0.7317588192
 H     -1.7117501108     -1.4217051213     -1.4231001839
 O      0.1007762326      0.2329656500     -2.6820296364
 H      0.9877729318      0.3961142718     -3.1515755285
 H     -0.3128867645     -0.5578804247     -3.0630443913
 O      1.3740038279      1.6150069604     -0.3051066424
 H      0.9703208364      2.4951596459     -0.1749868636
 H      2.3939937026      1.5318691575     -0.3301408268
 O      1.9098724777     -1.1383358573     -1.0693102778
 H      2.3251854504     -1.9575551939     -0.7362529999
 H      2.6290400526     -0.4864859159     -1.0581042699
 O     -1.5586532782      1.2950765035     -0.2280672669
 H     -2.2775773852      1.0338558263     -0.8376495247
 H     -1.5332415312      2.2828883863     -0.2901127292
 O      3.8860263574      0.7983093523     -0.7799793588
 H      4.5317802201      0.6824059776     -0.0660439078
 H      4.4224930978      1.3133223235     -1.3951703939
 O     -0.4699805774      3.5323555265     -1.6990789505
 H     -1.1224203292      3.7166330733     -2.4255334758
 H      0.4507233961      3.3852197427     -2.0819819957
 O     -3.2865948052      0.3522544265      3.1508007167
 H     -3.6921770461     -0.4654122667      3.3909625750
 H     -3.9877526711      0.9343615738      2.9211796157
 O     -0.3400055376      0.9485716820      3.8082455635
 H     -1.2763656265      0.7323411904      3.6253959249
 H     -0.3133723021      1.8530845219      4.1109696063
 O     -2.9584482107      0.1115865684     -2.3306471751
 H     -2.8423404610      0.7961053916     -3.0341674186
 H     -3.6679858052     -0.4622001221     -2.4264967875
 O     -0.9455783378     -2.3474032264     -3.5296852766
 H     -0.2230553543     -2.7774944635     -4.0540336862
 H     -1.7848816381     -2.8192806520     -3.6748761674
