61
# ORCA AIMD Velocity Step 0, t=0.00 fs, E_Pot=-266623.49120164 kJ mol^-1, Unit is Angstrom fs^-1
Zn      0.0003737979     -0.0020822737      0.0004913276
 O     -0.0003963393      0.0010555304     -0.0033138377
 H     -0.0141586315     -0.0083739493     -0.0279450722
 H      0.0080635967      0.0245398690      0.0166628409
 O     -0.0092248768      0.0024896751     -0.0007489758
 H      0.0064243982      0.0093524596      0.0122301947
 H     -0.0079291071     -0.0097427828      0.0398173160
 O      0.0039675874      0.0000114179     -0.0002696481
 H      0.0089443308     -0.0030672778      0.0274177588
 H      0.0007217764      0.0279492772     -0.0005045268
 O     -0.0044961574     -0.0044406691     -0.0036331887
 H     -0.0144370725      0.0175447078      0.0016055393
 H      0.0202898952      0.0035385258     -0.0227136560
 O     -0.0014823845     -0.0017154820      0.0022070022
 H      0.0285526659      0.0100940497      0.0236068881
 H     -0.0046906059      0.0040081283      0.0211838263
 O      0.0036553915      0.0017439874     -0.0014400472
 H     -0.0076831750     -0.0211856554      0.0188064586
 H      0.0170321637     -0.0030005994     -0.0146295856
 O      0.0010500068      0.0070850585     -0.0068161566
 H     -0.0058747982     -0.0123365597     -0.0266215187
 H      0.0087068144      0.0366083009      0.0032361967
 O      0.0003547204     -0.0010408786     -0.0006940760
 H     -0.0025774277     -0.0080458463      0.0066446316
 H      0.0223922810      0.0013327644      0.0041842995
 O      0.0069234333      0.0018308126      0.0028752503
 H     -0.0094158240     -0.0164394818     -0.0245080429
 H     -0.0211821911      0.0106193093     -0.0160849282
 O      0.0032264787      0.0095806050     -0.0016262215
 H      0.0031979417      0.0109712539      0.0226201172
 H     -0.0011071019     -0.0132556137     -0.0210590641
 O      0.0023751620      0.0033426353      0.0041763067
 H     -0.0151379400     -0.0046161910      0.0274856619
 H      0.0049589427      0.0039393990     -0.0032451490
 O     -0.0043773453      0.0002164973     -0.0013530800
 H      0.0014954300      0.0055960269     -0.0034323570
 H     -0.0039280861     -0.0154267468     -0.0031786727
 O      0.0019711656     -0.0062520334     -0.0029893737
 H     -0.0263210793     -0.0020348439      0.0373523232
 H     -0.0084351471      0.0143015842     -0.0182527899
 O     -0.0003330114     -0.0044550991     -0.0057061898
 H     -0.0063169297     -0.0072525554     -0.0045618436
 H      0.0210214131     -0.0043506183     -0.0185921480
 O     -0.0037828622     -0.0017732991      0.0049130999
 H     -0.0084637208      0.0274153497      0.0060100779
 H      0.0089588874      0.0333825534      0.0042870905
 O     -0.0018360269     -0.0008676657     -0.0020799146
 H      0.0054166578     -0.0089647373      0.0264546044
 H      0.0471707702      0.0032661674      0.0029662630
 O      0.0029062243     -0.0000276378     -0.0023654124
 H      0.0036533508     -0.0106654775     -0.0079233512
 H     -0.0058895998      0.0314333822     -0.0145552035
 O     -0.0020619007     -0.0028245906      0.0076288675
 H     -0.0147407777      0.0063492097     -0.0057187347
 H     -0.0126747284      0.0065767854      0.0195156217
 O      0.0019977163     -0.0052791531      0.0062207016
 H     -0.0125548651     -0.0191083568     -0.0118064633
 H     -0.0211945792     -0.0095228608     -0.0069386331
 O     -0.0029212903      0.0039760117     -0.0025227564
 H     -0.0053729001     -0.0137431087      0.0116362007
 H      0.0282710278     -0.0047789437      0.0063175397
61
# ORCA AIMD Velocity Step 2000, t=500.00 fs, E_Pot=-267146.91759936 kJ mol^-1, Unit is Angstrom fs^-1
Zn      0.0035733807     -0.0010470640      0.0016384685
 O     -0.0044860459     -0.0041203132      0.0001403559
 H      0.0142253104     -0.0163853990      0.0115701051
 H     -0.0182800238      0.0116348380     -0.0164255967
 O     -0.0103506093     -0.0036553273      0.0008589100
 H     -0.0114783213     -0.0326483434      0.0277010816
 H     -0.0350078263      0.0031344980      0.0092658776
 O      0.0081157163     -0.0034718529     -0.0019635850
 H      0.0065376182     -0.0250343475      0.0055590488
 H      0.0196757339     -0.0243407812      0.0020685755
 O      0.0062544678      0.0046032691      0.0091093939
 H      0.0005581202     -0.0039872981      0.0027826611
 H      0.0187494141      0.0202063194      0.0232584860
 O      0.0004189323      0.0002181314     -0.0120792380
 H      0.0091667195     -0.0033160143     -0.0336278253
 H     -0.0080339870     -0.0085156243     -0.0126682847
 O     -0.0026803094     -0.0069063640      0.0131248256
 H     -0.0126826359     -0.0104234008      0.0127989936
 H     -0.0110987670     -0.0054085372      0.0047186145
 O      0.0047019414      0.0018657773      0.0014103265
 H      0.0040697129      0.0065757331     -0.0047346429
 H      0.0029056091     -0.0066237569      0.0066910088
 O      0.0037834996     -0.0074869353     -0.0045024698
 H      0.0253755707     -0.0038707027     -0.0224449928
 H     -0.0089509701      0.0015925960     -0.0016910108
 O     -0.0030756157     -0.0048551834     -0.0024999448
 H     -0.0287673473      0.0045287125     -0.0104697311
 H     -0.0011838991     -0.0165162695      0.0029126399
 O      0.0046984892     -0.0077136497      0.0002877319
 H      0.0085793325     -0.0119979965     -0.0043720698
 H      0.0045065748     -0.0095835206     -0.0118766334
 O     -0.0042250089      0.0022706741     -0.0046327338
 H      0.0007592592     -0.0059024441     -0.0264363750
 H     -0.0102521875     -0.0271547176      0.0136519401
 O      0.0007080883     -0.0063107896      0.0031169607
 H      0.0107645586     -0.0076936502     -0.0180058623
 H     -0.0106830506      0.0117162751      0.0002312714
 O     -0.0047332125      0.0016348905     -0.0081039862
 H     -0.0083908482      0.0098868560      0.0151962390
 H     -0.0111869399     -0.0202320740     -0.0105410222
 O     -0.0010468133      0.0034733974     -0.0052432798
 H     -0.0001916605      0.0017614008     -0.0064531788
 H      0.0423859862      0.0145533487      0.0052506285
 O      0.0036597702      0.0038214565     -0.0017699201
 H     -0.0032700124      0.0016362690     -0.0184852494
 H     -0.0079947956      0.0027478895     -0.0130178393
 O     -0.0025735966     -0.0030449568     -0.0080664680
 H      0.0122974305      0.0004182523     -0.0031697912
 H     -0.0150584883      0.0220375154     -0.0340218980
 O      0.0000463104      0.0030313303      0.0011442964
 H     -0.0072294382      0.0039459081      0.0124230835
 H     -0.0098625650     -0.0084508021     -0.0065136613
 O     -0.0029980401     -0.0094714506     -0.0055336977
 H      0.0027962322     -0.0108764373     -0.0053632310
 H     -0.0079833828      0.0280331080      0.0222168851
 O      0.0060110302     -0.0022004928     -0.0002998874
 H      0.0161650313      0.0146097729      0.0059680190
 H     -0.0066378085      0.0157290018      0.0059886164
 O      0.0041508907     -0.0007426854     -0.0001064043
 H      0.0055894997     -0.0019573450      0.0034564675
 H     -0.0091701386     -0.0075304564      0.0134321355
61
# ORCA AIMD Velocity Step 4000, t=1000.00 fs, E_Pot=-267203.14197999 kJ mol^-1, Unit is Angstrom fs^-1
Zn     -0.0023937549      0.0007364340      0.0004115828
 O     -0.0010007934     -0.0054880575      0.0065141800
 H      0.0036616645     -0.0065907458     -0.0094109693
 H     -0.0014836798     -0.0172904836      0.0346337663
 O      0.0055579725     -0.0105299448      0.0118476527
 H     -0.0150030082      0.0058022923     -0.0255460712
 H      0.0117289855     -0.0120804423      0.0145800353
 O     -0.0085389388      0.0055131614     -0.0029760235
 H     -0.0108264787     -0.0157662671      0.0033063693
 H     -0.0047650625     -0.0007874296      0.0317961046
 O      0.0018978525     -0.0017832224      0.0035385942
 H     -0.0085480325      0.0063263172      0.0131532790
 H     -0.0027429305     -0.0254938363      0.0309390258
 O     -0.0003034569     -0.0035893956     -0.0005644674
 H      0.0069388228     -0.0022829329      0.0031921434
 H      0.0172031270      0.0185000686     -0.0182807022
 O      0.0011088164     -0.0026727945     -0.0082099272
 H     -0.0102723189     -0.0136959851     -0.0080130512
 H     -0.0121219219     -0.0022922082     -0.0410583114
 O     -0.0045185022      0.0051957605      0.0015033549
 H     -0.0083177097      0.0059967068     -0.0041810359
 H     -0.0005345577     -0.0182474167      0.0319702444
 O     -0.0004892396     -0.0057644328     -0.0021275805
 H     -0.0061052287      0.0280576396     -0.0162852910
 H      0.0008051969      0.0035907946     -0.0040405680
 O     -0.0023369568      0.0011899700      0.0060350124
 H      0.0035957160      0.0028838241      0.0024793896
 H     -0.0050967402      0.0339132081      0.0001273557
 O      0.0014518433     -0.0019562736     -0.0023365702
 H      0.0048031886     -0.0029692627     -0.0076312844
 H      0.0097116823     -0.0101114824      0.0068928447
 O      0.0093243851     -0.0090093538     -0.0002130977
 H      0.0219300028     -0.0303172358      0.0196494902
 H      0.0305624466      0.0137925504      0.0274406487
 O     -0.0027023843     -0.0011339069     -0.0019844882
 H      0.0078183456      0.0012539780     -0.0137496538
 H     -0.0189551663      0.0073994498     -0.0224951810
 O      0.0044238985      0.0000082717     -0.0030506765
 H     -0.0154993964     -0.0229893022      0.0010624090
 H     -0.0024694213     -0.0123569966      0.0057121598
 O     -0.0027394744     -0.0009477843     -0.0020253273
 H      0.0028986133     -0.0057308688     -0.0040980359
 H     -0.0064208342     -0.0165306629     -0.0297519772
 O     -0.0026206194      0.0042706326      0.0015372826
 H     -0.0425397262      0.0146990968      0.0254605395
 H      0.0237462548     -0.0210048321      0.0266502991
 O      0.0022637839      0.0010657768      0.0061105535
 H     -0.0065028673     -0.0078375398      0.0078293883
 H     -0.0187349379      0.0154772544     -0.0054144801
 O      0.0038461389     -0.0028649069     -0.0048137949
 H     -0.0175474260      0.0118068878      0.0046079933
 H     -0.0147784367      0.0005966131     -0.0037644190
 O     -0.0023557933     -0.0011670036      0.0020534040
 H      0.0113756180     -0.0089369680      0.0074458118
 H      0.0032068791      0.0028183874     -0.0000579900
 O     -0.0034677323     -0.0004271518     -0.0004293445
 H     -0.0397501059      0.0079633703     -0.0047487670
 H     -0.0070408352     -0.0068171224      0.0226317962
 O     -0.0019533294     -0.0018448443      0.0026897095
 H      0.0109172225     -0.0009080104     -0.0101299131
 H     -0.0236269730     -0.0036661741     -0.0157984406
