61
# ORCA AIMD Velocity Step 0, t=0.00 fs, E_Pot=-266377.21362912 kJ mol^-1, Unit is Angstrom fs^-1
Zn      0.0003656627     -0.0020802629      0.0004899146
 O     -0.0004486378      0.0010470654     -0.0033944548
 H     -0.0141941250     -0.0083821302     -0.0280196731
 H      0.0080460382      0.0244668890      0.0166133688
 O     -0.0092023567      0.0024226314     -0.0007311753
 H      0.0064894172      0.0093469432      0.0122414828
 H     -0.0078769609     -0.0098745584      0.0398643393
 O      0.0039823496      0.0000299898     -0.0002344780
 H      0.0089213486     -0.0030748643      0.0274484785
 H      0.0006804249      0.0280045066     -0.0004994537
 O     -0.0044507047     -0.0044471364     -0.0035517396
 H     -0.0143799290      0.0175164127      0.0016972853
 H      0.0203024036      0.0034632711     -0.0226198504
 O     -0.0015294462     -0.0016000325      0.0021823193
 H      0.0284463787      0.0102133153      0.0235615103
 H     -0.0046972296      0.0040625395      0.0211910872
 O      0.0036634361      0.0016674878     -0.0014563054
 H     -0.0076329805     -0.0212378001      0.0187953534
 H      0.0170399136     -0.0030090699     -0.0146672612
 O      0.0010864158      0.0071076984     -0.0067440280
 H     -0.0059025063     -0.0123680284     -0.0265517721
 H      0.0088001940      0.0365896764      0.0033393459
 O      0.0003336812     -0.0010413119     -0.0007551729
 H     -0.0025613399     -0.0080358025      0.0065918728
 H      0.0223973334      0.0013986245      0.0041102559
 O      0.0069293063      0.0018121802      0.0028783517
 H     -0.0093515497     -0.0164083845     -0.0245013719
 H     -0.0211642062      0.0106154459     -0.0160824811
 O      0.0032014053      0.0096232859     -0.0016824416
 H      0.0031016782      0.0110431440      0.0225309049
 H     -0.0010816918     -0.0131686096     -0.0211125926
 O      0.0023467059      0.0033336027      0.0042242002
 H     -0.0152244749     -0.0046429983      0.0275198480
 H      0.0049833045      0.0039815067     -0.0031965494
 O     -0.0043263617      0.0002595686     -0.0014307547
 H      0.0015549169      0.0056590700     -0.0035136702
 H     -0.0038907505     -0.0154637720     -0.0032347047
 O      0.0018974418     -0.0062025549     -0.0029594377
 H     -0.0264384990     -0.0020311433      0.0373814246
 H     -0.0085339837      0.0143207072     -0.0182209606
 O     -0.0003840742     -0.0043865342     -0.0057261267
 H     -0.0063713475     -0.0071561591     -0.0045918875
 H      0.0209797337     -0.0042146973     -0.0186301622
 O     -0.0037665313     -0.0017811409      0.0049008067
 H     -0.0084690524      0.0274498074      0.0059768444
 H      0.0089140759      0.0333780792      0.0042539104
 O     -0.0017939409     -0.0008633139     -0.0021464564
 H      0.0054622307     -0.0088826418      0.0263634064
 H      0.0472754929      0.0032431898      0.0029288895
 O      0.0028820432     -0.0000914175     -0.0023063178
 H      0.0036245694     -0.0107903431     -0.0078457687
 H     -0.0059625877      0.0314196114     -0.0145278838
 O     -0.0021503417     -0.0028336145      0.0076938829
 H     -0.0148591186      0.0063483313     -0.0056657300
 H     -0.0128151017      0.0065113767      0.0195815858
 O      0.0020539147     -0.0053511567      0.0062406715
 H     -0.0124883943     -0.0192383274     -0.0117639766
 H     -0.0210673954     -0.0095484350     -0.0069106466
 O     -0.0027825591      0.0039411143     -0.0025341131
 H     -0.0051897285     -0.0137101220      0.0116169353
 H      0.0284336860     -0.0048703022      0.0063321618
61
# ORCA AIMD Velocity Step 2000, t=500.00 fs, E_Pot=-267098.52155126 kJ mol^-1, Unit is Angstrom fs^-1
Zn      0.0001795788      0.0009750366      0.0003023611
 O     -0.0005036464      0.0093141841     -0.0039063707
 H     -0.0132945650      0.0006922498      0.0024004134
 H      0.0057257111      0.0213932470     -0.0081789744
 O     -0.0049443643      0.0016153795      0.0100431139
 H     -0.0102844571      0.0021770486     -0.0195457593
 H     -0.0143444335     -0.0023052775      0.0033295870
 O     -0.0006226317      0.0066155715     -0.0072925187
 H     -0.0075166804     -0.0168697929     -0.0129781382
 H      0.0272957324      0.0045383977     -0.0010197405
 O      0.0060489655      0.0031548158     -0.0075440745
 H     -0.0048981241      0.0173221387     -0.0115651516
 H      0.0087779388     -0.0089458600     -0.0276950618
 O     -0.0000593014      0.0026191699     -0.0020199944
 H     -0.0010872705      0.0045013093     -0.0377324666
 H     -0.0059841688     -0.0125461073     -0.0223068564
 O      0.0096677672      0.0066355170      0.0034891583
 H     -0.0096845482      0.0030415069      0.0272848668
 H      0.0089884380      0.0338837254      0.0017024646
 O      0.0019021964     -0.0024509555      0.0035267695
 H     -0.0203495370     -0.0078259299      0.0145730865
 H     -0.0078203593      0.0035736046     -0.0114204328
 O     -0.0000295536     -0.0017654430     -0.0026803681
 H      0.0284307829     -0.0144343558     -0.0056433825
 H     -0.0132175001     -0.0116084677      0.0395774986
 O      0.0038986232     -0.0050800014      0.0021344338
 H     -0.0175068063     -0.0144274862     -0.0144575504
 H     -0.0049599212     -0.0056245118      0.0065148465
 O      0.0020513225      0.0061508802     -0.0015438451
 H     -0.0312040625     -0.0169776142      0.0177386402
 H      0.0151459600      0.0022181496      0.0242511570
 O     -0.0041942956     -0.0012714984     -0.0031891874
 H      0.0030213995      0.0045838589     -0.0056505786
 H     -0.0001443482     -0.0091938390      0.0133105035
 O      0.0006011828     -0.0016247028      0.0063676943
 H     -0.0105737791     -0.0011865367     -0.0179231934
 H      0.0077949160     -0.0192020615      0.0245873525
 O     -0.0027172390      0.0075428668     -0.0051729663
 H     -0.0081985228      0.0063602700     -0.0246791610
 H     -0.0148886005      0.0067675240     -0.0101819936
 O     -0.0017979872      0.0053764144      0.0045625142
 H     -0.0239463683      0.0000168587     -0.0068216519
 H     -0.0161139834     -0.0065844988     -0.0055806919
 O      0.0021495394     -0.0027849247     -0.0046965976
 H      0.0057454777     -0.0112830407     -0.0031476051
 H      0.0113088415      0.0168161825      0.0197272457
 O     -0.0049517969     -0.0044955051     -0.0032835633
 H      0.0180943973     -0.0140892359      0.0097481267
 H      0.0082168194      0.0098368869      0.0199043670
 O     -0.0053677769      0.0006984292      0.0044645799
 H      0.0029520162      0.0307556768     -0.0099749926
 H      0.0032639090      0.0168234900     -0.0175417585
 O      0.0026493067     -0.0026052118     -0.0061853146
 H      0.0048086284      0.0106419029      0.0118131791
 H      0.0089766473     -0.0034305302      0.0036946201
 O      0.0004973431     -0.0000390398      0.0009971158
 H     -0.0111680775     -0.0062262169      0.0242174003
 H     -0.0067741960     -0.0052395411     -0.0036685218
 O      0.0045327463     -0.0096723166     -0.0039583206
 H     -0.0233340352     -0.0082322455     -0.0120783351
 H     -0.0010956561      0.0149521070     -0.0136853627
61
# ORCA AIMD Velocity Step 4000, t=1000.00 fs, E_Pot=-267179.30881294 kJ mol^-1, Unit is Angstrom fs^-1
Zn      0.0014398811     -0.0024819217     -0.0007043459
 O      0.0043855898     -0.0021548456      0.0026768552
 H      0.0064121502      0.0014715995      0.0157054137
 H     -0.0324036797     -0.0057252001     -0.0192999509
 O     -0.0009558777     -0.0076536443     -0.0021928604
 H     -0.0160286351     -0.0076099972     -0.0061469732
 H      0.0124188169     -0.0080951780      0.0136842968
 O      0.0046311720      0.0061484982     -0.0007013374
 H      0.0127865262      0.0236199612     -0.0063916354
 H     -0.0014896996     -0.0122663611      0.0181989832
 O      0.0029309216      0.0014852990      0.0025854785
 H      0.0239877531     -0.0015581959      0.0121736441
 H     -0.0330557574      0.0248325210     -0.0323036234
 O      0.0061539956     -0.0031981727     -0.0048446789
 H      0.0033178164     -0.0077467718      0.0100037566
 H      0.0049616511     -0.0007372336      0.0008766080
 O     -0.0046666048     -0.0010569360      0.0018331808
 H     -0.0010592987      0.0305506628     -0.0173089619
 H     -0.0072532266      0.0052117295      0.0045002126
 O      0.0006575870      0.0073506577     -0.0074007052
 H     -0.0006805109     -0.0137409396      0.0221058509
 H      0.0407066056      0.0029157156     -0.0073856490
 O     -0.0029182612     -0.0048774604     -0.0062012065
 H      0.0073223272      0.0160147848     -0.0003560966
 H     -0.0095554107      0.0035961762     -0.0102207573
 O     -0.0051175235      0.0034397277     -0.0039697378
 H     -0.0087648284     -0.0048705603     -0.0003403700
 H     -0.0012194846      0.0010700163     -0.0135725065
 O     -0.0020599917      0.0049974138     -0.0026373464
 H      0.0012066798      0.0138846129     -0.0284160564
 H      0.0077449596      0.0099961293      0.0396094397
 O      0.0026515250      0.0052646412      0.0012055418
 H     -0.0126906811     -0.0046295100      0.0090271462
 H      0.0181190323      0.0100331490      0.0318202255
 O      0.0035294515     -0.0062402202      0.0004904967
 H      0.0012894590      0.0043281530      0.0025101026
 H      0.0068527602      0.0156299997     -0.0037397432
 O     -0.0087277021     -0.0022350049     -0.0009744007
 H      0.0140899307     -0.0076364386      0.0021554316
 H      0.0103102207      0.0374498260     -0.0241743354
 O      0.0036809650      0.0002986574     -0.0055643203
 H      0.0081964774     -0.0004369690     -0.0050645033
 H      0.0068109942     -0.0250045177     -0.0171903946
 O      0.0075331734      0.0068816346     -0.0012569950
 H      0.0144327007     -0.0066677367     -0.0038733025
 H      0.0224578291      0.0117829600     -0.0034699326
 O     -0.0016842112      0.0014044154      0.0028753183
 H     -0.0203455923     -0.0343507411     -0.0085973002
 H     -0.0033060948      0.0350287201     -0.0049183066
 O     -0.0030797849      0.0022038417     -0.0015841471
 H      0.0006095795     -0.0142352433     -0.0334308723
 H      0.0070075867      0.0047019059     -0.0048628296
 O     -0.0063992997     -0.0015525637      0.0039294017
 H     -0.0363532348     -0.0033923047      0.0004327972
 H      0.0041530540     -0.0111238220     -0.0184385861
 O     -0.0055605365     -0.0003350832     -0.0039963990
 H      0.0187791863      0.0109950159     -0.0130471456
 H     -0.0011729213      0.0123247739      0.0097388130
 O     -0.0021924845     -0.0038999818     -0.0001078691
 H      0.0152913978      0.0202513119      0.0245559063
 H      0.0303742873      0.0249144049     -0.0070287365
