7
Retained H5O2+ checkpoint: step 8000, physical time 2000 fs
O         -1.19874941135050          0.23289572387317          0.16169569163179
O          1.20192885307073         -0.21205684980700         -0.12865140088875
H         -0.02537541184549          0.10297699691123         -0.21424174175084
H         -1.27454834700600         -0.43215682762842          0.87315854413481
H         -1.75850524970093         -0.06593603376408         -0.59921824221280
H          1.74161126882734         -0.37053517338249         -0.90798087053859
H          1.67551037826028          0.57809872293808          0.19116529856258
