97
# ORCA AIMD Velocity Step 0, t=0.00 fs, E_Pot=-378177.29225915 kJ mol^-1, Unit is Angstrom fs^-1
Zn      0.0005818760     -0.0024931213      0.0004385433
 O      0.0009493735      0.0006161159     -0.0022176757
 H     -0.0129089623     -0.0088314979     -0.0269321806
 H      0.0097014646      0.0239658294      0.0182022235
 O     -0.0092517102      0.0021841243     -0.0007495942
 H      0.0067042543      0.0094592454      0.0125440185
 H     -0.0078385558     -0.0105226061      0.0402244903
 O      0.0038989763      0.0002744486     -0.0004918181
 H      0.0088471433     -0.0029876029      0.0275648272
 H      0.0003796887      0.0287917898     -0.0009757116
 O     -0.0057340396     -0.0050542436     -0.0039710086
 H     -0.0158179149      0.0170385763      0.0013566317
 H      0.0191104748      0.0025192212     -0.0231042995
 O     -0.0010511156     -0.0029256505      0.0020795935
 H      0.0290343448      0.0089706563      0.0236089229
 H     -0.0040529248      0.0025244306      0.0212453854
 O      0.0040912109      0.0028791302     -0.0014763671
 H     -0.0071531194     -0.0200267193      0.0189551456
 H      0.0176593079     -0.0015382640     -0.0146753473
 O      0.0002449791      0.0057339475     -0.0073897758
 H     -0.0071313721     -0.0142742785     -0.0275462986
 H      0.0081761655      0.0352929883      0.0029060114
 O      0.0012829914     -0.0000336370     -0.0011302066
 H     -0.0013907048     -0.0070378041      0.0063160106
 H      0.0236919150      0.0028391240      0.0037055267
 O      0.0079379235      0.0001281880      0.0035055908
 H     -0.0083239466     -0.0180190164     -0.0242248067
 H     -0.0203630108      0.0089864424     -0.0154476140
 O      0.0043525786      0.0088503642     -0.0016700674
 H      0.0039377853      0.0103995074      0.0224304720
 H      0.0001757595     -0.0139240666     -0.0212967863
 O      0.0026779249      0.0014148851      0.0047225963
 H     -0.0154019302     -0.0067649631      0.0281230665
 H      0.0056421465      0.0024800671     -0.0026672243
 O     -0.0025609709      0.0011914281     -0.0013204113
 H      0.0034884283      0.0069455402     -0.0034787771
 H     -0.0022297963     -0.0151192269     -0.0031904290
 O      0.0011220564     -0.0077090302     -0.0026235726
 H     -0.0276017051     -0.0035697661      0.0381330428
 H     -0.0095774395      0.0126848181     -0.0179489715
 O     -0.0005900917     -0.0055297099     -0.0065499685
 H     -0.0067276985     -0.0083954257     -0.0054799671
 H      0.0210281675     -0.0049588927     -0.0197271438
 O     -0.0034031800      0.0000203005      0.0043793923
 H     -0.0081748209      0.0299000878      0.0054322355
 H      0.0092211831      0.0355193585      0.0035212876
 O     -0.0013243079     -0.0002873999     -0.0017838069
 H      0.0059709053     -0.0080412630      0.0270328937
 H      0.0483532377      0.0036664283      0.0034492543
 O      0.0016546142     -0.0012400989     -0.0028659421
 H      0.0023478379     -0.0122868363     -0.0085491957
 H     -0.0075993432      0.0307155811     -0.0152621104
 O     -0.0029096139     -0.0038824095      0.0068161235
 H     -0.0158119844      0.0055890327     -0.0066787038
 H     -0.0138423384      0.0052825001      0.0185953609
 O      0.0036841813     -0.0054571617      0.0065955832
 H     -0.0109199503     -0.0196145176     -0.0117000912
 H     -0.0193005401     -0.0093724079     -0.0064402032
 O     -0.0005470204      0.0039351602     -0.0024648135
 H     -0.0028583207     -0.0136537057      0.0117300627
 H      0.0312239481     -0.0051366859      0.0065532612
 N     -0.0026594893     -0.0002071013     -0.0022286010
 C      0.0003245645      0.0048907400      0.0005524916
 C      0.0030719370      0.0052189684      0.0017506937
 N     -0.0011742303     -0.0043104577      0.0043263455
 H      0.0129575484     -0.0381898217      0.0162593785
 H      0.0098261669      0.0312901488      0.0326003528
 H     -0.0247371219     -0.0143557394      0.0030759786
 H     -0.0216431421     -0.0089400155     -0.0053437407
 H     -0.0170660138      0.0042851645      0.0055650683
 H     -0.0203306636     -0.0154269651     -0.0193666136
 H     -0.0051181268      0.0035532741      0.0110329878
 H      0.0245807198     -0.0090641141     -0.0280541541
 N     -0.0058183962     -0.0024277438     -0.0046812571
 C      0.0056705032     -0.0061634282      0.0002570586
 C     -0.0017113569     -0.0011697883      0.0040841495
 N      0.0027535485      0.0022519313     -0.0007215722
 H      0.0017591850      0.0017667862      0.0111530076
 H     -0.0245916469      0.0139723898      0.0068630042
 H     -0.0055550219     -0.0081836083      0.0166325705
 H      0.0066996049      0.0065888856     -0.0027790596
 H      0.0050089899      0.0188690222     -0.0114729663
 H     -0.0049919195      0.0315453601     -0.0147084969
 H     -0.0214358064      0.0198464300      0.0013164122
 H     -0.0061694465      0.0076053835     -0.0012863443
 N      0.0013779768      0.0061262006      0.0105616965
 C     -0.0057428384     -0.0015460980     -0.0066883048
 C     -0.0001327910     -0.0031544093     -0.0080719704
 N     -0.0018810719      0.0078041833     -0.0005542158
 H      0.0219394183      0.0021916940      0.0041144654
 H      0.0036441379      0.0219833454     -0.0169209275
 H     -0.0068634252     -0.0109111331      0.0063976182
 H      0.0191933291      0.0080796193     -0.0010588417
 H      0.0030064309     -0.0003014704      0.0031722595
 H     -0.0090082245     -0.0243406667     -0.0049957062
 H     -0.0184516289      0.0136075112      0.0182621910
 H      0.0233375077     -0.0010565681     -0.0050392890
97
# ORCA AIMD Velocity Step 2000, t=500.00 fs, E_Pot=-378767.98374756 kJ mol^-1, Unit is Angstrom fs^-1
Zn      0.0020058973     -0.0042527759     -0.0022233898
 O      0.0007327835     -0.0038750182     -0.0047825917
 H     -0.0442306609     -0.0069371015     -0.0143922199
 H      0.0209328393      0.0089109882     -0.0081380358
 O     -0.0100679679      0.0031060633      0.0085327446
 H      0.0109021673     -0.0035619484      0.0131381489
 H      0.0232046454     -0.0002883832     -0.0034548641
 O     -0.0024275850      0.0013310417     -0.0055969211
 H      0.0082189188     -0.0207339467     -0.0042797458
 H     -0.0104138552     -0.0276782532      0.0139905281
 O      0.0012052246      0.0034507023     -0.0094489894
 H     -0.0230619356      0.0446460146     -0.0182079973
 H     -0.0355753847     -0.0102262352     -0.0161771675
 O     -0.0016783984     -0.0072598179      0.0029150519
 H      0.0049800845      0.0091140875      0.0145608898
 H     -0.0254803341      0.0097681589      0.0204301214
 O      0.0044023677     -0.0018053132     -0.0075270887
 H      0.0219999791      0.0112556746     -0.0299297434
 H     -0.0212850772     -0.0033678887      0.0216248456
 O     -0.0014744349     -0.0001748761      0.0037154802
 H      0.0042181825     -0.0114769157     -0.0212862381
 H      0.0152975327     -0.0079788410     -0.0157482229
 O     -0.0011164995      0.0014580760     -0.0041197777
 H      0.0114923125     -0.0161692348      0.0221640230
 H      0.0139379604      0.0227769047     -0.0144087787
 O     -0.0108884623     -0.0059083682      0.0040009083
 H      0.0050509592     -0.0034712603      0.0315415529
 H     -0.0380158948      0.0259581909      0.0129444040
 O     -0.0032406704     -0.0007769222     -0.0012035754
 H     -0.0242672768     -0.0028845727      0.0391025078
 H     -0.0196526128     -0.0004120061      0.0007018116
 O     -0.0067480610      0.0065786389     -0.0013194251
 H     -0.0063162947     -0.0246117747     -0.0076875307
 H      0.0098207663     -0.0128547418     -0.0107399174
 O     -0.0040537061     -0.0017985295     -0.0019187369
 H     -0.0162981464      0.0026257443      0.0188007780
 H      0.0059253929      0.0168080594     -0.0361311501
 O     -0.0011813245     -0.0021477788     -0.0022807919
 H     -0.0367005576     -0.0125796594      0.0033994303
 H      0.0078648925     -0.0072012047      0.0007819756
 O      0.0035125643     -0.0044637245      0.0009858212
 H      0.0046607697     -0.0348602576     -0.0132354155
 H     -0.0004093232      0.0118360605      0.0083798147
 O     -0.0091465340     -0.0024576601     -0.0035263491
 H      0.0038013439     -0.0149433811     -0.0104909400
 H     -0.0200808902     -0.0127841505     -0.0073036376
 O     -0.0028747604     -0.0024358473      0.0065857196
 H     -0.0082827335     -0.0042887217     -0.0008741671
 H      0.0065567034     -0.0056733498      0.0131175650
 O      0.0098638507     -0.0046073496      0.0105222239
 H     -0.0061766613      0.0089355847      0.0044072681
 H      0.0159150951     -0.0156438579     -0.0028502220
 O      0.0009300121      0.0004093340     -0.0016063779
 H      0.0051658635     -0.0216928957      0.0036944738
 H      0.0163675408      0.0145340068     -0.0083936665
 O      0.0079317116      0.0004665955      0.0010378483
 H     -0.0192766708     -0.0071661969      0.0172610879
 H      0.0111891661      0.0103501652      0.0072044882
 O      0.0020174884      0.0000884322     -0.0008393749
 H      0.0229869766     -0.0143386801      0.0052966142
 H      0.0262498936     -0.0078026088      0.0055171920
 N      0.0041687724      0.0030400751      0.0052619730
 C     -0.0004542065     -0.0044322251      0.0021474360
 C      0.0068167110      0.0028415827     -0.0017481659
 N     -0.0036791924      0.0001987508     -0.0022485982
 H      0.0092137193      0.0030133134      0.0183902472
 H     -0.0080580339      0.0062950138      0.0112340422
 H      0.0141882196      0.0150140355      0.0057115698
 H     -0.0188847385      0.0060123651      0.0000845425
 H      0.0224117555      0.0181268454     -0.0072518805
 H      0.0155294395     -0.0061202867     -0.0205695501
 H     -0.0161257249      0.0032871512     -0.0202722779
 H      0.0009091460      0.0024136010     -0.0146848787
 N     -0.0033981376     -0.0038862744      0.0010787173
 C      0.0002498271      0.0008888914     -0.0007241955
 C     -0.0008531084     -0.0087401203     -0.0000372167
 N      0.0012659791     -0.0036142077      0.0010808634
 H     -0.0119101321      0.0069293275     -0.0041913482
 H     -0.0041493231      0.0019517729      0.0082223905
 H     -0.0018634520      0.0034158718     -0.0022853625
 H     -0.0095733631     -0.0041495735      0.0013747364
 H     -0.0070342639     -0.0026170748      0.0026335223
 H      0.0097537087     -0.0067362415     -0.0030947774
 H     -0.0008067885     -0.0019586533     -0.0074918962
 H     -0.0018821540      0.0114611934      0.0002875357
 N     -0.0023446462     -0.0013909750     -0.0096994768
 C     -0.0043993218      0.0022907056      0.0002293508
 C      0.0096315493      0.0070903041     -0.0013331044
 N     -0.0005430312      0.0018157284      0.0003806154
 H     -0.0205551736      0.0034892743     -0.0404443940
 H     -0.0017485053      0.0220569314     -0.0163234912
 H      0.0021313538     -0.0028195417      0.0093961178
 H     -0.0028180898      0.0163963051      0.0025644855
 H     -0.0013442781      0.0088940458      0.0010011851
 H      0.0075289625      0.0089383720     -0.0084866368
 H      0.0007647876      0.0032878409     -0.0152707936
 H      0.0018630010      0.0061357922      0.0105486773
97
# ORCA AIMD Velocity Step 4000, t=1000.00 fs, E_Pot=-378855.51914858 kJ mol^-1, Unit is Angstrom fs^-1
Zn      0.0011839818     -0.0049509469     -0.0057288708
 O      0.0020214855     -0.0037954076     -0.0017850701
 H      0.0025858820     -0.0073788430     -0.0026335129
 H      0.0191836606      0.0049712009      0.0185071452
 O      0.0017613073      0.0031302994     -0.0063310516
 H     -0.0099884147      0.0087783856     -0.0294003271
 H     -0.0019120225     -0.0222239761      0.0114454510
 O     -0.0023248552     -0.0034610879     -0.0002849505
 H     -0.0291912430     -0.0061295054     -0.0072153491
 H     -0.0183737872      0.0093385226      0.0156642344
 O     -0.0062221835      0.0057021618     -0.0078646183
 H      0.0212450448     -0.0075283907      0.0309288029
 H      0.0104637241     -0.0057576198     -0.0082525756
 O      0.0016006786     -0.0018136303     -0.0034929731
 H     -0.0009731567      0.0067669911      0.0014461292
 H      0.0215640010     -0.0055909297      0.0539122975
 O     -0.0055596377     -0.0070255971      0.0091519417
 H      0.0037000314     -0.0024788774      0.0093153582
 H      0.0029610110      0.0174079662     -0.0098880533
 O     -0.0014898248     -0.0008739932      0.0033944957
 H     -0.0183655791     -0.0275608348     -0.0177337587
 H      0.0135000656      0.0158839975      0.0032969102
 O      0.0012258915      0.0070566589      0.0006927917
 H     -0.0041522207     -0.0119447563      0.0021299777
 H      0.0071413044     -0.0025672177     -0.0185009111
 O      0.0013911313      0.0022362077      0.0008033867
 H      0.0032186816     -0.0270367865      0.0114997762
 H      0.0017146938     -0.0382122802      0.0015836690
 O      0.0059249598     -0.0030134698     -0.0067254648
 H     -0.0098008874     -0.0041576645      0.0162428623
 H     -0.0513589438      0.0067426520      0.0094797103
 O     -0.0002259922     -0.0081648732      0.0004917859
 H     -0.0025360420     -0.0085901805     -0.0210581999
 H     -0.0098340612     -0.0044176888     -0.0205551345
 O     -0.0031037105      0.0001166566     -0.0042447219
 H      0.0055080256     -0.0120649513      0.0039609394
 H      0.0010302060     -0.0259615276     -0.0124842469
 O     -0.0052951487     -0.0009460242     -0.0123506621
 H      0.0028636626     -0.0253885372      0.0227316421
 H      0.0084081427      0.0094179727     -0.0214544279
 O      0.0000774139     -0.0066968588      0.0017876376
 H      0.0155988137     -0.0045866392     -0.0019100419
 H     -0.0052598098      0.0220842428      0.0146844141
 O     -0.0004289689     -0.0051929885      0.0022142231
 H     -0.0004584850      0.0025941310     -0.0010652415
 H      0.0032977899     -0.0074887756     -0.0139667057
 O      0.0045646696     -0.0035660414     -0.0051714650
 H     -0.0130245934     -0.0287029783     -0.0125907356
 H      0.0018183554      0.0114645253     -0.0018091653
 O     -0.0076254720      0.0036539912     -0.0022149012
 H      0.0011859584     -0.0237844218      0.0073047375
 H     -0.0057033507      0.0051746625     -0.0146488804
 O     -0.0010304612     -0.0043808562     -0.0012982950
 H     -0.0002577802      0.0015351802      0.0004604287
 H     -0.0360196591     -0.0055367853      0.0206394154
 O      0.0043133533      0.0004802595     -0.0046351918
 H      0.0153871492     -0.0349704523     -0.0156788753
 H     -0.0021576602      0.0200988295      0.0016618457
 O     -0.0033595833      0.0035249760     -0.0004573343
 H      0.0028851299     -0.0169614201     -0.0114233396
 H      0.0252973273      0.0057541997     -0.0013328100
 N     -0.0058352320     -0.0033585423      0.0030085904
 C     -0.0108319194      0.0032204509     -0.0040732908
 C      0.0008139747      0.0029743934     -0.0061355898
 N      0.0006331070      0.0021117410     -0.0011971568
 H      0.0035919401     -0.0063654443     -0.0198497481
 H      0.0087730657     -0.0053402724      0.0201373283
 H     -0.0185664443      0.0087368683     -0.0067032433
 H     -0.0041822324      0.0076711201     -0.0045761096
 H      0.0011975997      0.0098282285      0.0126150679
 H      0.0115926456      0.0001590539      0.0094312450
 H      0.0119187921      0.0104058446     -0.0123775228
 H      0.0174279379     -0.0121603295     -0.0008181836
 N     -0.0058014070     -0.0023868353      0.0013639923
 C      0.0039496844     -0.0024237979      0.0007243590
 C      0.0040512564      0.0038060259      0.0004968127
 N     -0.0016503083      0.0020621420     -0.0014726421
 H     -0.0092278307      0.0085312557     -0.0174062058
 H      0.0198991502      0.0021621617      0.0196584505
 H     -0.0093467638      0.0013353006     -0.0099369507
 H     -0.0073760798      0.0019341515      0.0126163245
 H      0.0018760614      0.0062784579      0.0082923045
 H      0.0133022018     -0.0113581965      0.0010822093
 H     -0.0042297648     -0.0035520848      0.0116131997
 H      0.0007326033     -0.0081054382     -0.0185678942
 N      0.0076333527     -0.0076172066     -0.0002796586
 C     -0.0021547948     -0.0008458665     -0.0035824868
 C     -0.0083344109      0.0062216306      0.0017294562
 N     -0.0002332778      0.0023681824      0.0052140560
 H      0.0039624123      0.0029613316     -0.0118988335
 H      0.0039008599     -0.0061193634     -0.0147653475
 H     -0.0102926767      0.0039733510     -0.0142333828
 H     -0.0132743982     -0.0151331177      0.0012286661
 H     -0.0326260690      0.0017220324     -0.0156439371
 H     -0.0107584336      0.0259563908      0.0009187571
 H     -0.0019847983     -0.0245028528      0.0033022818
 H     -0.0015452042     -0.0116965063      0.0018527689
97
# ORCA AIMD Velocity Step 6000, t=1500.00 fs, E_Pot=-378860.99824738 kJ mol^-1, Unit is Angstrom fs^-1
Zn      0.0022260495     -0.0027547243     -0.0030106307
 O      0.0033331907      0.0024389406     -0.0048597524
 H     -0.0223869884      0.0008654122     -0.0190065134
 H     -0.0102170784      0.0088138152     -0.0009300864
 O      0.0018167298      0.0053435969     -0.0091717788
 H      0.0199561078      0.0430425149     -0.0221641156
 H     -0.0234608689     -0.0035723490     -0.0007444612
 O     -0.0038086154     -0.0027131491     -0.0001016736
 H      0.0063385852     -0.0096613277      0.0001290018
 H     -0.0272068725      0.0043144217      0.0319333780
 O     -0.0007837461      0.0049790626     -0.0000227941
 H     -0.0099931629     -0.0199602362     -0.0153299933
 H      0.0076308043      0.0000885613     -0.0241673462
 O     -0.0002617760      0.0010763392      0.0022662118
 H     -0.0237792679      0.0192411146      0.0184462502
 H     -0.0121385536      0.0193649281      0.0053109853
 O      0.0030341644     -0.0026654921      0.0073884606
 H      0.0182419945     -0.0039797046      0.0335783103
 H     -0.0153260034     -0.0533789593     -0.0466223359
 O      0.0014864845     -0.0000030570     -0.0025763019
 H     -0.0172346461      0.0193759085     -0.0036975098
 H      0.0211707486      0.0269257348     -0.0042832748
 O     -0.0111113183      0.0066627862     -0.0014392418
 H      0.0122798353     -0.0212123857      0.0312870020
 H     -0.0155102790     -0.0007837673      0.0035228066
 O     -0.0111074584      0.0076569117      0.0006210698
 H      0.0026301055     -0.0110776861     -0.0027174655
 H      0.0006357241      0.0112840277     -0.0112842293
 O      0.0023841977      0.0032261934     -0.0001744799
 H      0.0161325630      0.0081404637      0.0199700430
 H      0.0072956236     -0.0105251925     -0.0303579720
 O     -0.0024411625     -0.0008499352     -0.0078497436
 H     -0.0132106075     -0.0111496912     -0.0027080873
 H     -0.0033278469     -0.0085073404      0.0181462335
 O     -0.0019916490      0.0026137531      0.0090050425
 H      0.0218725481     -0.0166393882      0.0251344021
 H     -0.0040685816     -0.0165671519      0.0044753653
 O      0.0023899572     -0.0058811594      0.0049880014
 H      0.0298331123     -0.0058757847     -0.0264178159
 H     -0.0071834214     -0.0176474947     -0.0111474133
 O     -0.0033592357      0.0005052953     -0.0031834279
 H      0.0143664103      0.0336075243      0.0078157451
 H      0.0279791284      0.0072083207      0.0144514711
 O     -0.0024162993      0.0057053957     -0.0000849645
 H      0.0138170386     -0.0035220748      0.0074260042
 H     -0.0140844129     -0.0065555230     -0.0088700426
 O      0.0068781707     -0.0056048461     -0.0033267780
 H      0.0147149170     -0.0149534346     -0.0211193154
 H      0.0043586428     -0.0033922093     -0.0095639433
 O     -0.0009791424      0.0032506159      0.0034762202
 H     -0.0180719019      0.0074752385     -0.0368064698
 H     -0.0230306904     -0.0033141612     -0.0024258004
 O      0.0083599098     -0.0010330279      0.0028895050
 H      0.0154735064      0.0030521639      0.0057896582
 H      0.0412317260      0.0106127519     -0.0308785318
 O      0.0016015916     -0.0011139011      0.0068372324
 H     -0.0145100840      0.0047797251      0.0140222292
 H      0.0124866034      0.0028893232      0.0175876338
 O      0.0061773657      0.0021099954      0.0012011151
 H     -0.0042751813     -0.0137643200      0.0032962465
 H      0.0108538872      0.0257090293      0.0183960756
 N     -0.0071086103      0.0053484466     -0.0086058624
 C     -0.0006134458     -0.0002663598     -0.0022933244
 C     -0.0009440043      0.0034265161     -0.0049318389
 N     -0.0054459853      0.0042374267     -0.0035145955
 H     -0.0062725444      0.0128136233     -0.0066379903
 H     -0.0056105440      0.0058827006      0.0118634235
 H     -0.0138503245      0.0090846957      0.0179484248
 H     -0.0014817885     -0.0030729450     -0.0097150254
 H      0.0170916200     -0.0111825140     -0.0113087776
 H      0.0092180036     -0.0086176023     -0.0010194949
 H      0.0131113581      0.0001329440      0.0213226471
 H     -0.0151853650     -0.0025279353      0.0042959160
 N      0.0009766731      0.0054803442     -0.0011848161
 C      0.0012430675      0.0010054759     -0.0050081102
 C      0.0004816705     -0.0036290443      0.0050341620
 N      0.0000891562     -0.0018088196      0.0003611262
 H      0.0025426070     -0.0015652622     -0.0009938569
 H     -0.0031663359      0.0154292053      0.0012107785
 H      0.0144960133      0.0034169646     -0.0066612018
 H     -0.0106261306      0.0203473554     -0.0103208110
 H     -0.0121748207     -0.0023761246      0.0249730748
 H      0.0127342834     -0.0002851406      0.0035007986
 H      0.0140409288     -0.0009062503      0.0115251346
 H     -0.0134182042     -0.0172716749      0.0064634668
 N      0.0000254871      0.0051007504      0.0017717572
 C     -0.0033394260      0.0019735862     -0.0025346574
 C     -0.0014664845     -0.0041597753      0.0002889812
 N      0.0035839196      0.0041074245     -0.0100414535
 H      0.0114459671     -0.0066072275      0.0075007570
 H      0.0005830930     -0.0127128660     -0.0010395159
 H     -0.0023733584     -0.0002623058     -0.0163363392
 H      0.0139565202     -0.0277771015      0.0074997208
 H     -0.0168904570     -0.0198116408     -0.0128962463
 H      0.0056586129      0.0056967335     -0.0149007175
 H      0.0014981534     -0.0064803083     -0.0030112676
 H      0.0047164429      0.0088325150      0.0060110088
97
# ORCA AIMD Velocity Step 8000, t=2000.00 fs, E_Pot=-378881.60819857 kJ mol^-1, Unit is Angstrom fs^-1
Zn      0.0001485773      0.0026795567     -0.0008319288
 O     -0.0047494787     -0.0018992450      0.0083908903
 H     -0.0123068377     -0.0183870116      0.0097906186
 H      0.0052061570      0.0103196828     -0.0086117683
 O      0.0079703636      0.0064180004      0.0013399816
 H      0.0168822035      0.0222435980     -0.0221804908
 H     -0.0003335995     -0.0103346324     -0.0078124871
 O     -0.0011089833      0.0044329618      0.0025118290
 H      0.0052798955      0.0125811803      0.0034914692
 H      0.0037219755      0.0002394711     -0.0002463247
 O     -0.0000967423     -0.0022681599      0.0025921393
 H      0.0236320211      0.0062618416      0.0098724433
 H      0.0278920327     -0.0272691342     -0.0115841438
 O     -0.0025917828     -0.0017117060     -0.0023791652
 H     -0.0187207602      0.0089889487      0.0094750231
 H      0.0076622926      0.0064456688     -0.0392699012
 O      0.0015313820     -0.0041803691      0.0050435366
 H      0.0288376096     -0.0294066812      0.0374816811
 H     -0.0052540383      0.0079409302      0.0108235029
 O      0.0029680041     -0.0004500180     -0.0051764666
 H     -0.0115570849     -0.0249304503     -0.0063686510
 H      0.0217317554      0.0085092727     -0.0180563123
 O     -0.0006478120      0.0036685930      0.0054785123
 H     -0.0029759437      0.0361201388     -0.0258672596
 H      0.0347023701      0.0081830193      0.0067485459
 O     -0.0023746203     -0.0063154493      0.0075628053
 H      0.0005676585      0.0001920366      0.0108032623
 H     -0.0006855028     -0.0018177464      0.0007463640
 O      0.0042614724      0.0022267697      0.0083180087
 H      0.0176434515     -0.0243743839     -0.0045384812
 H     -0.0373879335      0.0058466238     -0.0061902418
 O      0.0023021700     -0.0025954914      0.0022815117
 H     -0.0281714228      0.0012813310     -0.0240868137
 H      0.0100186198     -0.0105970444      0.0198697791
 O     -0.0015819058      0.0022848287      0.0060267453
 H     -0.0162040542      0.0066890786     -0.0076545818
 H      0.0314316745     -0.0040617558     -0.0425434661
 O     -0.0003649397     -0.0020603684     -0.0056774398
 H     -0.0085731815     -0.0140129247     -0.0260955802
 H      0.0302790424      0.0138214052     -0.0252200935
 O     -0.0001112541      0.0091024540     -0.0012742556
 H     -0.0158444799      0.0099633212     -0.0164066128
 H     -0.0016533425      0.0227241017     -0.0072793116
 O      0.0092342923      0.0045738806     -0.0029072216
 H     -0.0053538203     -0.0159513529     -0.0126310791
 H     -0.0028637001      0.0363821066     -0.0023249476
 O      0.0021793474      0.0019252668      0.0050019810
 H      0.0098957465      0.0076248495      0.0169242366
 H      0.0083239457      0.0077263292      0.0100716137
 O     -0.0058666133      0.0024352809     -0.0036477597
 H     -0.0060515963      0.0279355307      0.0027718860
 H     -0.0119471735     -0.0041292126      0.0186366840
 O      0.0108294046     -0.0050323188      0.0052840214
 H      0.0224000496      0.0023646069      0.0009114543
 H      0.0035663158     -0.0258076117     -0.0297506572
 O      0.0112813389      0.0076132703     -0.0027297389
 H      0.0021319229      0.0182528253     -0.0010494990
 H     -0.0006756425      0.0097778685      0.0054859215
 O     -0.0087566694      0.0056700765      0.0100390132
 H     -0.0010367300     -0.0134407585     -0.0015401242
 H     -0.0158473450     -0.0109740147      0.0068375890
 N      0.0034772489     -0.0049308442     -0.0012248936
 C     -0.0065345976     -0.0015594982     -0.0029464002
 C     -0.0045458843      0.0097358089     -0.0051647008
 N     -0.0041906387     -0.0021705901      0.0045268659
 H      0.0128310670     -0.0108754516     -0.0013872121
 H     -0.0004246944     -0.0116051918      0.0164556360
 H      0.0003634266     -0.0055597234     -0.0121825379
 H     -0.0146634088      0.0194219926      0.0146671370
 H      0.0176645707     -0.0032972084     -0.0212225120
 H     -0.0058693117      0.0174197039      0.0191589379
 H      0.0022554466     -0.0022668233      0.0192521373
 H      0.0074861384      0.0114003447      0.0147619024
 N      0.0031318814     -0.0004828780      0.0027350340
 C      0.0046215526      0.0024643453     -0.0004557168
 C      0.0018017446     -0.0026454830     -0.0015880819
 N     -0.0012549971      0.0008050117     -0.0015505119
 H     -0.0099972861      0.0186349554     -0.0041947736
 H      0.0035880763      0.0056670052      0.0015637944
 H      0.0072973024     -0.0064145525     -0.0054348163
 H      0.0045809314      0.0104558876     -0.0120143901
 H     -0.0017478229     -0.0087048228      0.0061701929
 H     -0.0000947955      0.0024803540      0.0113570421
 H     -0.0168096897     -0.0063564617     -0.0127382159
 H      0.0007692902     -0.0159621279      0.0056356119
 N     -0.0016645368     -0.0014910722      0.0012328786
 C      0.0100479230     -0.0050231783      0.0045840602
 C      0.0071000110     -0.0092783152     -0.0031778440
 N     -0.0013143855     -0.0022590958     -0.0006527289
 H      0.0006235641     -0.0009179853      0.0037504819
 H      0.0230372315      0.0158483815     -0.0024119165
 H      0.0129110559      0.0049863775     -0.0122401435
 H      0.0291787793     -0.0107789607     -0.0037296891
 H      0.0067812546     -0.0104240437      0.0007678121
 H      0.0073804494     -0.0052337730     -0.0192026247
 H      0.0064267317     -0.0100317359      0.0014537105
 H     -0.0042339147      0.0139688742      0.0076898188
97
# ORCA AIMD Velocity Step 10000, t=2500.00 fs, E_Pot=-378869.44447736 kJ mol^-1, Unit is Angstrom fs^-1
Zn      0.0018823376     -0.0030771651      0.0012890579
 O     -0.0098420614     -0.0021463237     -0.0007098831
 H      0.0030135614     -0.0072164081     -0.0009154520
 H      0.0200556559     -0.0188241480     -0.0133679729
 O      0.0016739289     -0.0054736978      0.0045637220
 H      0.0196195248     -0.0282771897      0.0007279989
 H      0.0059493481      0.0081274167      0.0059213466
 O      0.0018254309     -0.0001937858      0.0082331928
 H      0.0089396641     -0.0056219199      0.0069192743
 H     -0.0086032171      0.0176550224      0.0215789977
 O      0.0055624339      0.0000428985      0.0039154040
 H     -0.0211336325     -0.0062602818     -0.0106668485
 H     -0.0150991856     -0.0055124859      0.0311030102
 O     -0.0054598795     -0.0038120380     -0.0001300449
 H      0.0065221836      0.0036841439     -0.0103414025
 H     -0.0051620972      0.0102235209      0.0436323076
 O      0.0002884256      0.0038309971      0.0023894301
 H     -0.0112609214     -0.0151908283      0.0186953173
 H     -0.0185313249      0.0236286239      0.0150748418
 O     -0.0037079856      0.0094434509      0.0039882458
 H      0.0115620693      0.0132752634      0.0022595577
 H     -0.0011346320     -0.0042548640      0.0065593303
 O      0.0061370211      0.0008047046      0.0048458764
 H      0.0121474470      0.0218313402     -0.0069682412
 H      0.0049084752      0.0253160101      0.0033908619
 O      0.0052021526      0.0061361348     -0.0011151333
 H      0.0076158488      0.0229444823      0.0117522879
 H      0.0126665824     -0.0198607385     -0.0123082921
 O      0.0038133849      0.0040209892     -0.0043536198
 H     -0.0184547925      0.0151203433      0.0150876776
 H     -0.0108378625     -0.0330960505     -0.0204821941
 O      0.0053537006      0.0028694627     -0.0042839452
 H     -0.0314833181     -0.0045126410     -0.0028233296
 H     -0.0080525930      0.0004011950      0.0000528345
 O      0.0062961706      0.0011670634      0.0007370414
 H      0.0093870589      0.0260569106      0.0154399082
 H      0.0158592130      0.0171037885     -0.0076979443
 O      0.0028871894      0.0024390604      0.0016957244
 H     -0.0158105179     -0.0272445291     -0.0067455981
 H      0.0035456830     -0.0154180047     -0.0043623580
 O     -0.0003032365      0.0045717050      0.0015435816
 H     -0.0246579843      0.0247055815      0.0077493220
 H      0.0042539024      0.0071472680      0.0208808061
 O      0.0072533485      0.0053724512      0.0003883802
 H     -0.0157103360     -0.0019823255     -0.0000989651
 H     -0.0039398922      0.0284124190     -0.0062856776
 O      0.0009104085      0.0089001775      0.0018859136
 H     -0.0093707457      0.0030523924      0.0233774517
 H     -0.0066345235     -0.0138304120      0.0066861773
 O     -0.0001102883      0.0020335369      0.0087332105
 H     -0.0052965528      0.0074620285      0.0169226476
 H      0.0307994144     -0.0318674671     -0.0105599471
 O     -0.0030516708     -0.0021703740     -0.0109607408
 H      0.0167235061     -0.0304748433     -0.0107479121
 H      0.0186660992      0.0007299242     -0.0162377239
 O     -0.0055402485     -0.0000853956      0.0053357514
 H      0.0088069759      0.0191096276     -0.0032737247
 H      0.0241985178     -0.0121227424      0.0154090224
 O     -0.0052109909      0.0055565638      0.0054943708
 H      0.0099756779     -0.0235621306     -0.0320524980
 H     -0.0158441123      0.0071994013      0.0165263531
 N     -0.0027402860     -0.0014419448      0.0039197375
 C     -0.0057836484     -0.0082698143      0.0003722059
 C     -0.0099864993     -0.0039715116     -0.0030722026
 N     -0.0019211731      0.0012946066      0.0006026283
 H      0.0034313954      0.0070279841     -0.0094868880
 H      0.0102506016     -0.0001248044     -0.0132752443
 H     -0.0089350862      0.0139573416      0.0049070542
 H      0.0126282338      0.0063011741      0.0219595986
 H      0.0118761660      0.0079139063      0.0022418998
 H      0.0059718237      0.0128649159     -0.0067448066
 H     -0.0001167025      0.0118213180     -0.0023107061
 H     -0.0072429711      0.0123584513     -0.0108050481
 N     -0.0005487519      0.0046998869      0.0005495697
 C     -0.0019199268     -0.0003011487      0.0028165151
 C      0.0004514653     -0.0009461205      0.0012011642
 N      0.0009140353     -0.0063709024     -0.0012710361
 H      0.0021536230     -0.0015620588      0.0097993565
 H      0.0017671919      0.0066231336      0.0058576917
 H     -0.0214180993      0.0010025996     -0.0051834522
 H      0.0071881728     -0.0066098369      0.0080790315
 H      0.0000170613      0.0048388388     -0.0169182391
 H     -0.0015545045     -0.0076237853     -0.0220272863
 H     -0.0183967936     -0.0061301745      0.0056041605
 H      0.0048202539     -0.0116250062     -0.0014061690
 N      0.0040465641     -0.0000847662      0.0023137368
 C     -0.0023015739     -0.0081726572      0.0005356776
 C     -0.0015120177      0.0045636291     -0.0050279915
 N      0.0020146466      0.0048359591      0.0019606271
 H     -0.0049220873     -0.0186882000     -0.0022464284
 H     -0.0038997226     -0.0121318806     -0.0226456702
 H      0.0144676515     -0.0239644812     -0.0013213667
 H      0.0084374082     -0.0100170219      0.0029335315
 H      0.0037291620      0.0046537607     -0.0042915107
 H      0.0038253925     -0.0001285151     -0.0182020210
 H      0.0087966216      0.0029709693     -0.0025918024
 H      0.0087054059      0.0148372521      0.0276354319
97
# ORCA AIMD Velocity Step 12000, t=3000.00 fs, E_Pot=-378845.72920576 kJ mol^-1, Unit is Angstrom fs^-1
Zn     -0.0010752370      0.0024309484      0.0028554872
 O     -0.0019903179     -0.0020214455      0.0008408271
 H     -0.0163977317     -0.0124855617     -0.0066158594
 H      0.0180667363     -0.0120660001     -0.0163337054
 O      0.0000496471      0.0043118476      0.0023857123
 H     -0.0151751538      0.0021733520     -0.0018875030
 H     -0.0209825340     -0.0102794580      0.0232235205
 O     -0.0033186164     -0.0051851347      0.0009287042
 H      0.0092583072     -0.0217138800      0.0177881137
 H     -0.0085772996      0.0163510419     -0.0080970663
 O      0.0031382682     -0.0035324955     -0.0012618387
 H      0.0005511340     -0.0048971913     -0.0040883712
 H     -0.0050378583      0.0117527344      0.0175021718
 O      0.0023140675      0.0015042355     -0.0013765503
 H     -0.0123115284     -0.0006399935     -0.0086386310
 H     -0.0026962369      0.0088352615      0.0140003686
 O     -0.0090782450      0.0014388759      0.0029023883
 H      0.0261401923      0.0059931334     -0.0018312874
 H     -0.0001578427     -0.0179373380     -0.0104727938
 O      0.0052881211     -0.0039973649      0.0022631150
 H     -0.0137429224      0.0055888241     -0.0068075378
 H      0.0001604107     -0.0280156557      0.0135049072
 O      0.0032707575      0.0007945783     -0.0024514508
 H      0.0399020748     -0.0362199120      0.0189162081
 H     -0.0016783799      0.0265943427      0.0125496251
 O      0.0020126420      0.0035688630     -0.0066317109
 H      0.0029950569     -0.0106965996      0.0043188266
 H      0.0086285361      0.0139080432     -0.0079215166
 O      0.0013248135      0.0049161075     -0.0067320939
 H      0.0252963128     -0.0057473275      0.0091501734
 H     -0.0073143421     -0.0145026254     -0.0024914951
 O      0.0074065768     -0.0031060512      0.0058345394
 H      0.0103730751     -0.0116554785      0.0372477776
 H      0.0036924255      0.0057668822      0.0121716136
 O     -0.0027327548      0.0015838367     -0.0005646971
 H     -0.0059991943      0.0042099637     -0.0450250312
 H     -0.0089356978     -0.0228080968      0.0092949571
 O      0.0058531693     -0.0026667935      0.0046357602
 H     -0.0262954604      0.0015553037     -0.0005663358
 H      0.0265925074      0.0168367218      0.0206451189
 O      0.0036839142      0.0088541060      0.0085170964
 H      0.0212288366      0.0073119311     -0.0007185382
 H     -0.0118191608      0.0093687740     -0.0140088507
 O     -0.0090594247      0.0038380185      0.0007116762
 H     -0.0056188660      0.0053749659      0.0058603975
 H      0.0133997407      0.0097004747     -0.0133638120
 O     -0.0097502776     -0.0045308828      0.0047110814
 H     -0.0162565246      0.0041351999     -0.0010793842
 H     -0.0034143045     -0.0073234599     -0.0250929879
 O      0.0107553759     -0.0037299078      0.0053271082
 H      0.0064905761     -0.0111331236     -0.0189229722
 H     -0.0110877918      0.0181131009      0.0066913254
 O     -0.0080200428      0.0021619384      0.0098656765
 H      0.0085650595     -0.0071447247     -0.0258034629
 H     -0.0049369027      0.0025411678      0.0029716165
 O     -0.0016533705      0.0012207651     -0.0049058084
 H      0.0180433313     -0.0000067234      0.0049546089
 H      0.0142764049      0.0002116932      0.0062990491
 O     -0.0011937452     -0.0053731836      0.0005598718
 H     -0.0031514419     -0.0110868125      0.0136819768
 H      0.0057031398      0.0100768448     -0.0089170568
 N      0.0064193174      0.0013404790      0.0018571845
 C      0.0014654011     -0.0051643558     -0.0025219683
 C      0.0048907841      0.0003988558      0.0000099120
 N     -0.0039393161     -0.0033993348     -0.0039870256
 H     -0.0127693189      0.0086041164     -0.0325994831
 H      0.0184737884     -0.0138109161     -0.0155809968
 H     -0.0086287929      0.0206108085     -0.0053436732
 H      0.0083735902      0.0154077193      0.0056581023
 H      0.0199228425     -0.0141017660     -0.0061532919
 H      0.0142431870      0.0065994003      0.0093114295
 H     -0.0072930655      0.0045558236      0.0082340093
 H      0.0059568303     -0.0021650085     -0.0035249526
 N     -0.0043380312     -0.0002354859      0.0035576981
 C     -0.0027150779      0.0002373968     -0.0038881220
 C     -0.0055548215      0.0012891609      0.0027445495
 N      0.0008261368     -0.0007301389     -0.0028023820
 H      0.0191376084      0.0036847381      0.0088387722
 H     -0.0013914611      0.0139260901      0.0010533914
 H      0.0050852374      0.0144588207     -0.0052747591
 H     -0.0126502920     -0.0085292041     -0.0090274343
 H     -0.0047759849      0.0117555248     -0.0149115038
 H     -0.0114542429      0.0162465913     -0.0098581966
 H      0.0071126964      0.0213789724     -0.0091948675
 H      0.0194578189     -0.0015253429     -0.0233650851
 N     -0.0130594981      0.0021318700      0.0033645424
 C     -0.0014818745     -0.0042248777      0.0016913988
 C     -0.0042645288     -0.0024748366      0.0039837150
 N      0.0003051785     -0.0009008591      0.0038770605
 H     -0.0255941202      0.0017998710     -0.0146327259
 H      0.0067360704     -0.0143494902      0.0104064869
 H     -0.0224478343     -0.0197504559     -0.0151060902
 H     -0.0108438729     -0.0007054587     -0.0107079404
 H     -0.0100125359     -0.0375171466     -0.0027130289
 H      0.0018391873      0.0044454230     -0.0016112187
 H      0.0125944052     -0.0136557329     -0.0017376781
 H     -0.0166137638     -0.0032279808     -0.0085168051
97
# ORCA AIMD Velocity Step 14000, t=3500.00 fs, E_Pot=-378847.59084407 kJ mol^-1, Unit is Angstrom fs^-1
Zn      0.0003470595      0.0004532099     -0.0014794826
 O      0.0000281218     -0.0031506207      0.0013644181
 H     -0.0013010814      0.0214067882     -0.0132269132
 H     -0.0060332212     -0.0041134481     -0.0129737673
 O     -0.0067153383      0.0009797875     -0.0064160445
 H      0.0227514896     -0.0046733099     -0.0187738748
 H     -0.0143207265      0.0178852963     -0.0078854235
 O      0.0021880658      0.0037834507      0.0105200257
 H     -0.0076966591     -0.0118426257      0.0062796073
 H     -0.0159681640     -0.0364844897     -0.0098001929
 O      0.0070215898      0.0009840794     -0.0077559459
 H     -0.0009981697     -0.0220451540     -0.0107405891
 H      0.0019061269     -0.0011824409      0.0146996188
 O      0.0001882484     -0.0013375694      0.0008998643
 H     -0.0057825419      0.0086035384     -0.0021472124
 H     -0.0078987035      0.0185470110      0.0311538123
 O     -0.0036136025     -0.0043557027      0.0010300323
 H     -0.0550745948     -0.0085211579      0.0132925552
 H      0.0007650319     -0.0116413479      0.0162874697
 O     -0.0031317094     -0.0037309524     -0.0058074339
 H      0.0013584637     -0.0018744266     -0.0077765586
 H     -0.0048875122     -0.0014257702     -0.0082166190
 O     -0.0026167974      0.0027732471     -0.0098774014
 H      0.0178854515      0.0077324838     -0.0118048221
 H      0.0419384290      0.0010642154     -0.0174064136
 O      0.0028743078     -0.0022494588     -0.0007335902
 H      0.0058766955      0.0015357666      0.0103269778
 H     -0.0107234051     -0.0221667041     -0.0119947576
 O      0.0008228797     -0.0033816480     -0.0008245672
 H     -0.0049137901     -0.0149517341      0.0396530473
 H      0.0185541909     -0.0089811662     -0.0026760850
 O      0.0003210350     -0.0013233549     -0.0047179825
 H     -0.0028287985      0.0278820977      0.0158352883
 H     -0.0397956531     -0.0103799297     -0.0146670644
 O     -0.0017707651     -0.0027450448     -0.0009057429
 H     -0.0234972856      0.0088911046      0.0042174635
 H      0.0084548466      0.0046868770     -0.0020010180
 O      0.0019445412      0.0052723929     -0.0072991618
 H     -0.0441607348      0.0171524170     -0.0135221724
 H      0.0094429803      0.0036884094      0.0159172869
 O      0.0098378192      0.0028459102     -0.0023654587
 H      0.0129704686      0.0158457016      0.0119390169
 H     -0.0082312271      0.0248317594      0.0020866455
 O      0.0000168541     -0.0042011832      0.0081090318
 H     -0.0278414436     -0.0146941078     -0.0064319910
 H     -0.0052465056     -0.0076299699     -0.0034255540
 O     -0.0155234468     -0.0038870023     -0.0020286365
 H     -0.0040940774     -0.0213344186      0.0037558027
 H     -0.0210287613     -0.0143714289      0.0142248847
 O     -0.0065445190     -0.0092375033      0.0036729138
 H     -0.0141459610      0.0166051678     -0.0115783530
 H     -0.0341113464      0.0103470543     -0.0221209814
 O     -0.0011092737     -0.0032333069      0.0040515912
 H      0.0290582075     -0.0114013353      0.0112559442
 H     -0.0293147055      0.0051481736      0.0278653141
 O     -0.0099789760     -0.0035335763     -0.0003988389
 H     -0.0134014130      0.0073053983      0.0088901532
 H     -0.0083616599     -0.0013867279      0.0041069550
 O      0.0015744820     -0.0046440281      0.0013227487
 H     -0.0132327749     -0.0074075836      0.0001442492
 H     -0.0249636550      0.0028776336     -0.0096783151
 N     -0.0030074343      0.0062023875     -0.0033231797
 C      0.0024695965     -0.0047461117     -0.0038779472
 C     -0.0034052887      0.0096963970      0.0041737665
 N     -0.0060855323      0.0070432252      0.0016010921
 H      0.0113509939     -0.0005337537     -0.0270891171
 H      0.0259871358     -0.0052037229     -0.0083814047
 H      0.0132225455     -0.0033680174      0.0068924891
 H     -0.0060517964      0.0219842581     -0.0069407375
 H     -0.0112594254     -0.0208955249      0.0027284965
 H      0.0152939959      0.0071304088     -0.0040794220
 H     -0.0029402711     -0.0083908794      0.0182076501
 H      0.0132658973      0.0196444864      0.0199960681
 N     -0.0035267958     -0.0031066609     -0.0019806971
 C     -0.0025091760     -0.0040153622     -0.0019476780
 C      0.0000556135     -0.0042093264     -0.0034399306
 N     -0.0020419860      0.0001615325      0.0042790205
 H     -0.0055491182      0.0106686798     -0.0094184933
 H     -0.0010848045     -0.0072209152      0.0042010149
 H     -0.0085647046     -0.0121972031     -0.0099502870
 H     -0.0045135684      0.0013252727     -0.0009506104
 H      0.0052263640      0.0039393827     -0.0041592593
 H     -0.0042291468     -0.0041322261     -0.0200418821
 H      0.0025587030      0.0002405394     -0.0072904629
 H     -0.0026024852      0.0241072514      0.0132082169
 N      0.0011498877      0.0112917304     -0.0016704246
 C     -0.0017316834      0.0002611990      0.0012348606
 C      0.0000556417     -0.0020087761      0.0069875931
 N     -0.0027889434     -0.0002875685     -0.0050363061
 H      0.0011206135     -0.0025444810      0.0044485644
 H      0.0046923145     -0.0085936594     -0.0069899400
 H     -0.0206258452      0.0088248504      0.0315854427
 H     -0.0289218797     -0.0018431869     -0.0094187872
 H     -0.0168650004      0.0002701764     -0.0188378754
 H     -0.0080087835     -0.0173583328      0.0005097831
 H      0.0171456435     -0.0058661805      0.0043879591
 H     -0.0131141434     -0.0001398381      0.0171995292
97
# ORCA AIMD Velocity Step 16000, t=4000.00 fs, E_Pot=-378852.29507741 kJ mol^-1, Unit is Angstrom fs^-1
Zn     -0.0029434440     -0.0012610585     -0.0029466104
 O      0.0066794891      0.0022832691      0.0029184303
 H     -0.0139875341     -0.0086477363      0.0028575383
 H      0.0004121342      0.0017680466     -0.0037643861
 O     -0.0066552531     -0.0065914180     -0.0019372281
 H     -0.0138230123     -0.0107067011     -0.0032084517
 H      0.0112188820      0.0079248212     -0.0103257305
 O     -0.0034979351     -0.0027195711      0.0002000036
 H      0.0122495339     -0.0084283190     -0.0028353417
 H      0.0185378381      0.0359550941      0.0025026571
 O      0.0052187329     -0.0071451506      0.0018053159
 H      0.0116487467     -0.0097412548     -0.0291270047
 H      0.0050094594      0.0083973830     -0.0231544105
 O      0.0016195404     -0.0057869950      0.0006016868
 H     -0.0077025836     -0.0111276324     -0.0220784642
 H     -0.0151821787      0.0138202739      0.0056688377
 O      0.0027632145     -0.0076756799      0.0003652286
 H     -0.0257447334     -0.0172875431     -0.0246045308
 H     -0.0017898244      0.0007335949      0.0247835439
 O     -0.0082078914      0.0023672921     -0.0051035453
 H     -0.0156703661     -0.0126798981     -0.0276116064
 H      0.0109469760      0.0085054317      0.0259613036
 O     -0.0004341195     -0.0021675942     -0.0077511230
 H      0.0270487635      0.0265705806      0.0120829827
 H      0.0046500735      0.0077783677      0.0134993986
 O     -0.0023185860      0.0102901940      0.0008795871
 H     -0.0158089003     -0.0141632946      0.0168628867
 H      0.0016704851      0.0079407429     -0.0006905460
 O     -0.0022098275     -0.0022130951      0.0021957575
 H     -0.0003714142      0.0055377498      0.0076013589
 H      0.0027307242      0.0222262261      0.0110865921
 O      0.0065747049     -0.0008010430      0.0019915057
 H     -0.0134243848     -0.0118437598     -0.0038545422
 H      0.0217419171      0.0018683346     -0.0062232516
 O      0.0021226760     -0.0045271621     -0.0010186978
 H     -0.0326952346      0.0103849374      0.0345704790
 H     -0.0173200565      0.0085437122     -0.0274146013
 O      0.0003576710      0.0018322597      0.0000518293
 H      0.0067416237      0.0134710820      0.0066147274
 H     -0.0110330413      0.0109469055     -0.0384379820
 O     -0.0007187294      0.0021702759     -0.0038925979
 H      0.0010845432      0.0039156541     -0.0025642549
 H     -0.0021756870      0.0228248890      0.0209596153
 O     -0.0037432557     -0.0016007609     -0.0020811871
 H     -0.0101213728     -0.0002567702      0.0060326800
 H     -0.0157276669      0.0012499018      0.0025176382
 O      0.0002066830      0.0041546035     -0.0072676694
 H      0.0183653019     -0.0062309881     -0.0004114952
 H     -0.0000460914      0.0105169888     -0.0072157538
 O      0.0026011095      0.0043662163      0.0031344270
 H     -0.0054807735     -0.0085949875     -0.0153479120
 H      0.0114717148      0.0024339828     -0.0020251014
 O     -0.0046773136     -0.0024053043     -0.0072892840
 H     -0.0106485451     -0.0099574017     -0.0235218659
 H      0.0100902551      0.0187854654      0.0086982157
 O     -0.0050703739      0.0007368669      0.0029186199
 H      0.0129655189     -0.0046567519     -0.0209765324
 H      0.0061036307      0.0084854100     -0.0045146714
 O      0.0019277125      0.0016108023     -0.0056127729
 H      0.0071222847     -0.0207593891     -0.0121540057
 H      0.0201030305     -0.0183106145      0.0074706865
 N     -0.0039840266      0.0057637192      0.0053832372
 C     -0.0057814308      0.0070233998      0.0012464913
 C     -0.0080552187      0.0001783362     -0.0005567648
 N     -0.0040158622     -0.0005637155      0.0081522074
 H     -0.0097842203      0.0016412576      0.0034866813
 H     -0.0326913279      0.0054522600      0.0210430940
 H      0.0011155953      0.0143865777      0.0049877015
 H      0.0192751259     -0.0056017686     -0.0059396092
 H     -0.0095685129      0.0049459462      0.0067809530
 H      0.0096889153      0.0147335244      0.0039110661
 H      0.0142671740      0.0075546933     -0.0313507846
 H     -0.0108827683      0.0225060197     -0.0135675550
 N     -0.0012227536     -0.0026279123     -0.0047966766
 C     -0.0003827900     -0.0042366704      0.0006275126
 C     -0.0007028308     -0.0058246121     -0.0048070274
 N      0.0040054631     -0.0042172464      0.0005264826
 H      0.0056418577      0.0060369715      0.0103059661
 H      0.0072940959     -0.0092416609      0.0089404410
 H      0.0092996015     -0.0175763678     -0.0078541532
 H     -0.0130070040      0.0010802352     -0.0061004299
 H      0.0058653795     -0.0105623425     -0.0188793431
 H     -0.0127894331      0.0002880481     -0.0064635282
 H     -0.0010632231      0.0103669168      0.0011007449
 H     -0.0121718121     -0.0207964816      0.0002610839
 N     -0.0068661690     -0.0002829494     -0.0025175419
 C      0.0003400294     -0.0036359283      0.0050968990
 C     -0.0032780001     -0.0021703784      0.0035289890
 N     -0.0006356027     -0.0013184171     -0.0062688391
 H      0.0067118362     -0.0080529414     -0.0264959410
 H      0.0015618003      0.0210195581      0.0075537362
 H     -0.0026040845      0.0178283947     -0.0087344069
 H     -0.0074662105      0.0071862057      0.0001705649
 H     -0.0195737202      0.0098796515      0.0163223611
 H      0.0311779819      0.0066090103     -0.0016543259
 H     -0.0241694743     -0.0292492489      0.0045098962
 H      0.0144920123      0.0128771931     -0.0327102726
97
# ORCA AIMD Velocity Step 18000, t=4500.00 fs, E_Pot=-378780.63379312 kJ mol^-1, Unit is Angstrom fs^-1
Zn      0.0012338250     -0.0006818857     -0.0030280140
 O     -0.0128227896      0.0014040069     -0.0032611717
 H     -0.0321128546      0.0011324521     -0.0081184648
 H      0.0016312877     -0.0144051308     -0.0017634751
 O      0.0050463816      0.0000114172      0.0026500423
 H     -0.0104158371      0.0019640690      0.0080607579
 H     -0.0092300183      0.0057431375     -0.0234955049
 O      0.0017378853     -0.0036941474      0.0055340531
 H     -0.0267401330      0.0000924269      0.0174619713
 H     -0.0042133339     -0.0192161085     -0.0143409942
 O     -0.0033789296      0.0019736546     -0.0026887126
 H      0.0064686819      0.0233889671      0.0078371453
 H     -0.0017131622     -0.0040635764     -0.0001445438
 O     -0.0061582374     -0.0079428377      0.0025780260
 H      0.0054707496      0.0000177666     -0.0309051866
 H     -0.0002221075     -0.0265732542      0.0114598159
 O      0.0080558759     -0.0011308069     -0.0022660880
 H     -0.0066313677     -0.0002858621     -0.0163574534
 H      0.0202334826     -0.0200076770      0.0065497867
 O      0.0068769312      0.0085212017     -0.0018143298
 H      0.0283546801      0.0019739191     -0.0006175212
 H     -0.0223011716      0.0060096252     -0.0025569556
 O     -0.0042139061     -0.0004374915      0.0001330472
 H     -0.0204264387      0.0007597964      0.0246009512
 H     -0.0017595255      0.0281359952     -0.0221150569
 O     -0.0040790722     -0.0090160087     -0.0036099024
 H      0.0019371061     -0.0257955213     -0.0004998851
 H     -0.0167731478      0.0070499573     -0.0017643362
 O      0.0071366291      0.0002523717      0.0049972848
 H      0.0128316829     -0.0491922050     -0.0038198151
 H     -0.0137439571      0.0298543398     -0.0065734747
 O      0.0049624596     -0.0028057869      0.0058438945
 H     -0.0072860395     -0.0288577430     -0.0117719787
 H     -0.0006229713     -0.0038158902      0.0002287869
 O      0.0044051349      0.0007180037     -0.0056599575
 H     -0.0262821140     -0.0248900103     -0.0029163407
 H     -0.0219053931      0.0147197811      0.0112536644
 O     -0.0083645167      0.0007567350     -0.0041182553
 H     -0.0329092519     -0.0018311156      0.0310394797
 H      0.0103056413      0.0043517108     -0.0138278737
 O      0.0059871654     -0.0079242035     -0.0070919852
 H     -0.0022914189     -0.0103416629     -0.0109437389
 H     -0.0081628479     -0.0006119302      0.0052424600
 O      0.0016136645     -0.0069530253     -0.0058045886
 H     -0.0083995782      0.0128241990      0.0054386871
 H      0.0089396012     -0.0053659639     -0.0006704020
 O     -0.0004149521     -0.0074981445      0.0011405864
 H     -0.0007669098     -0.0115617776     -0.0117600189
 H      0.0202120001     -0.0041139934     -0.0088613283
 O     -0.0005857790      0.0053803025      0.0026189789
 H      0.0160111384     -0.0127916978     -0.0008018387
 H      0.0207365475     -0.0119929115      0.0220639301
 O     -0.0033375236     -0.0008966145     -0.0009444185
 H      0.0157551286      0.0002018758      0.0143867170
 H     -0.0025991781     -0.0166034536      0.0381035744
 O     -0.0048937330     -0.0012605378      0.0032166000
 H     -0.0152303950      0.0139027990     -0.0317608904
 H     -0.0074850129     -0.0262147393      0.0199596743
 O     -0.0046147129      0.0025745639     -0.0025897077
 H      0.0017841152     -0.0103695396     -0.0168328241
 H      0.0051600365     -0.0370325676      0.0236404664
 N      0.0054632094      0.0024131955     -0.0014589728
 C     -0.0042434931     -0.0017899840      0.0002398489
 C      0.0015959892     -0.0072241761      0.0005979634
 N     -0.0056511777      0.0068796453      0.0118030819
 H     -0.0079089269      0.0023877751     -0.0045907531
 H     -0.0085467422     -0.0032393220      0.0180893999
 H      0.0014580349      0.0261203159      0.0114006833
 H      0.0020119005      0.0031526601      0.0287792049
 H     -0.0137786235     -0.0138708280      0.0188631465
 H      0.0132658822     -0.0035130159     -0.0171990831
 H      0.0145295615      0.0045043039     -0.0186698581
 H      0.0010799278      0.0058279360      0.0101136745
 N     -0.0084639408     -0.0025002977     -0.0024793011
 C     -0.0042709226      0.0004214619      0.0022433145
 C      0.0058691815     -0.0010492652      0.0026208565
 N     -0.0015632339     -0.0018087077     -0.0005116743
 H      0.0105527394      0.0094577503     -0.0073253012
 H     -0.0157522770      0.0213716593     -0.0073796200
 H      0.0076131993      0.0152292348     -0.0094212092
 H     -0.0015891157      0.0034924009      0.0140171594
 H     -0.0295308019      0.0067513154      0.0030204474
 H     -0.0025257616      0.0038325154     -0.0060888150
 H     -0.0057680891     -0.0035961573     -0.0105418840
 H     -0.0225695680     -0.0279606489     -0.0184611017
 N      0.0031391845      0.0045037313      0.0032386303
 C      0.0030861871     -0.0013037980     -0.0024453242
 C     -0.0001032292     -0.0045589642      0.0011462332
 N     -0.0096015398      0.0018636991     -0.0038688403
 H     -0.0003842598      0.0121027682      0.0157976771
 H      0.0003693772      0.0112378379     -0.0124184175
 H     -0.0020093768      0.0038317550     -0.0264384205
 H      0.0205574655      0.0166938635     -0.0225847157
 H     -0.0195639863      0.0128702295     -0.0052167458
 H     -0.0147678118     -0.0262361356      0.0051743011
 H      0.0172563375      0.0115712041     -0.0250001811
 H      0.0198980147      0.0044311067     -0.0314680238
97
# ORCA AIMD Velocity Step 20000, t=5000.00 fs, E_Pot=-378873.26150231 kJ mol^-1, Unit is Angstrom fs^-1
Zn      0.0001127505      0.0029000997     -0.0017471313
 O     -0.0017888745      0.0026295908     -0.0060381120
 H      0.0120329838      0.0191662949     -0.0243289776
 H      0.0051285888     -0.0100509682      0.0295378958
 O     -0.0031127785     -0.0021359211      0.0006192211
 H      0.0047216424     -0.0072434512     -0.0041478709
 H     -0.0020738200     -0.0003733157      0.0129886983
 O      0.0117966396     -0.0027738826      0.0010044588
 H      0.0083967979     -0.0256021389      0.0200025376
 H      0.0217739419      0.0212045196     -0.0256069620
 O     -0.0094120704     -0.0035991034      0.0017255776
 H      0.0072845082     -0.0231834260     -0.0281604709
 H     -0.0348195005     -0.0257814685     -0.0021570835
 O     -0.0018302982      0.0014106016      0.0052557435
 H     -0.0062186942     -0.0162585814     -0.0041041023
 H     -0.0045763730      0.0204397935      0.0042843296
 O      0.0038414305      0.0047681644     -0.0012918632
 H      0.0019284630      0.0031078045     -0.0099435988
 H     -0.0157492311      0.0059398955     -0.0133510270
 O      0.0062041776     -0.0039177761      0.0060559655
 H     -0.0088246022     -0.0003801941      0.0107891239
 H      0.0179744354      0.0033489625     -0.0129166806
 O      0.0053493263      0.0002004085     -0.0036336978
 H      0.0203487613      0.0237253131      0.0354799967
 H      0.0086276334     -0.0106196634      0.0078849831
 O      0.0013145699     -0.0024976828      0.0000583078
 H      0.0096324711      0.0050562601     -0.0232196387
 H      0.0084195844     -0.0009045298      0.0042608399
 O      0.0025949629      0.0083946060      0.0005476372
 H      0.0043244125     -0.0060810362     -0.0099961809
 H     -0.0069488975     -0.0021091444     -0.0032120899
 O      0.0038269925     -0.0001496992     -0.0014010235
 H     -0.0102571788      0.0028405725      0.0278675826
 H      0.0117148147     -0.0051496972      0.0100561286
 O     -0.0058222182      0.0064524746     -0.0023955332
 H     -0.0146224106     -0.0043991019     -0.0022162221
 H     -0.0188647392     -0.0065294374      0.0029696124
 O     -0.0004866016     -0.0056318944      0.0064136070
 H      0.0289958670     -0.0157719421     -0.0082523143
 H      0.0188492855     -0.0325340834      0.0035773138
 O      0.0054732268      0.0031634749     -0.0037992269
 H      0.0175444183      0.0081158971     -0.0205590828
 H      0.0147190197     -0.0227783051     -0.0054105863
 O      0.0058778275     -0.0006469942     -0.0042211365
 H     -0.0097253972     -0.0106661212     -0.0022283383
 H     -0.0067095785     -0.0124240019     -0.0134731244
 O      0.0063093414      0.0038642035      0.0000638413
 H     -0.0041301587      0.0066887142      0.0118205331
 H     -0.0047385424      0.0069444769     -0.0000006080
 O     -0.0000114620      0.0013618450      0.0011547677
 H     -0.0050805933      0.0246721957     -0.0006147122
 H      0.0022596922      0.0071146109     -0.0245428296
 O      0.0015536299     -0.0013397817      0.0054189816
 H      0.0073342795      0.0052983883      0.0023621438
 H     -0.0006452582      0.0097018002      0.0014568152
 O     -0.0027042990      0.0011624203     -0.0006577616
 H     -0.0318162857     -0.0277587653     -0.0095858245
 H      0.0002957591      0.0115293103      0.0062863627
 O      0.0081971881     -0.0028937182     -0.0047083884
 H     -0.0527003007     -0.0366239861      0.0014464754
 H      0.0063921018      0.0045717162     -0.0060666299
 N     -0.0018477016     -0.0002835240     -0.0026410854
 C     -0.0027545220     -0.0079333884     -0.0045784923
 C      0.0002642895      0.0006602840      0.0000387524
 N      0.0094194096      0.0034672077      0.0069002330
 H     -0.0285921579      0.0291953027     -0.0115940303
 H      0.0182555291      0.0037889388      0.0004875480
 H      0.0028231849      0.0124370121      0.0042337491
 H      0.0087460023      0.0127415057     -0.0055574999
 H     -0.0031211214     -0.0008720506     -0.0290071685
 H     -0.0104157064     -0.0011306888     -0.0046907988
 H      0.0190708282      0.0087688456      0.0031349344
 H     -0.0161532093     -0.0011417479     -0.0014421316
 N     -0.0033561076     -0.0067628256      0.0091544449
 C     -0.0049300976      0.0004054712      0.0011895783
 C     -0.0049974547     -0.0057606532      0.0064750583
 N     -0.0088666042     -0.0078418225      0.0059214212
 H      0.0087950465     -0.0028387797      0.0116288526
 H      0.0005684092     -0.0291466821     -0.0006799865
 H     -0.0001581939     -0.0195783258     -0.0146491243
 H      0.0035621899      0.0004959301      0.0038811953
 H      0.0122891132      0.0154366972      0.0012451115
 H     -0.0114284128     -0.0065081748     -0.0124420698
 H     -0.0031149395     -0.0081565762     -0.0094744489
 H     -0.0082248819     -0.0278321236      0.0011458007
 N     -0.0008771674     -0.0017931447      0.0058120202
 C      0.0074908565     -0.0032417829     -0.0058014021
 C     -0.0008403637      0.0058083730      0.0052943916
 N      0.0039281378     -0.0041376446      0.0086163503
 H      0.0256015545      0.0075066476      0.0090440262
 H      0.0055352601      0.0293445531     -0.0006264949
 H     -0.0212023501      0.0056993705      0.0084961403
 H      0.0058454421      0.0065744831     -0.0021873801
 H     -0.0138939471      0.0118706409      0.0082229392
 H      0.0004863154      0.0015587517     -0.0086729836
 H     -0.0383904552     -0.0111553896     -0.0130465298
 H      0.0257327776      0.0122340620     -0.0119624899
