31
-44.770142
Zn -0.04410187110735006022 0.00377658877252001757 0.03932941359937008885
N  0.02524916864645962433 -0.68786152981892001446 1.96110679053988001819
C  -0.85154561169007991772 -1.86668046639640938800 1.99975875037532913048
C  -2.10279719281656962693 -1.55698435070961060944 1.18778484377289994534
N  -1.68901776963401939469 -1.19348016643613008547 -0.17480259604305983800
H  0.92586824900044906173 -0.93740562376875979922 2.35746813977505897952
H  -0.37108867960858948898 0.01333408738401037352 2.58316834936810879597
H  -0.32915757412226098744 -2.70954381646639985703 1.54552525690016007154
H  -1.12987004279971015031 -2.14110607746370007476 3.02080932127152967936
H  -2.61985844413571911105 -0.70807590514214047150 1.63714279384242011872
H  -2.77578490625622009702 -2.41855127491669152917 1.19971368662229038726
H  -1.42206108641188988528 -2.04896832977998988312 -0.65764862092375941938
H  -2.49445267478545895656 -0.82922901362247036783 -0.67401207760356951493
O  -0.13537121413112976342 0.67070588918505003040 -1.90617823242293948915
H  -0.74268959670906919968 0.35180569225390001531 -2.58302367973466973083
H  0.17208440299790062067 1.53689317850875006854 -2.19871059096952015111
O  1.60540417835261939317 1.21119195296198944867 0.27759806401850889435
H  2.22170910495211826330 1.42503894034116918021 -0.43284893710503913322
H  2.06315780948859872623 1.40034391862611085067 1.10430570992350940429
O  1.21147670175139876569 -1.49045436859065905111 -0.67267118581210993966
H  1.38897694783305913901 -1.54946145812915903051 -1.61891794607718964016
H  2.00359252873058846234 -1.81276336423094930339 -0.22825286313454953846
O  -1.18295915266938900245 1.64901056528781975175 0.60538982869190993696
H  -2.00573679698775908520 1.91617965644035948003 0.18053035736094005803
H  -0.75661499098799911422 2.46181716581032894453 0.90205941556449986685
O  3.29545779471971078678 -2.64701201357153692584 0.63294255248110697920
H  3.24466559357417416720 -3.60203217877232750865 0.72393567171932382553
H  4.22146959977934344010 -2.42186261150133441689 0.51045391845909326989
O  -2.35784602453575553582 -0.26443932552578397477 -3.20159196830943049150
H  -2.99744106130800602728 0.34607997514005939266 -3.57710275300890856442
H  -2.40184248284895263126 -1.06949320509189704786 -3.72423134746934136885
