3
# ORCA AIMD Position Step 0, t=0.00 fs, E_Pot=-200423.65384788 kJ mol^-1, Unit is Angstrom
 O     -0.0000000000      0.0000000000     -0.0735096940
 H      0.7603282370      0.0000000000      0.5410388492
 H     -0.7603282369      0.0000000000      0.5410388492
3
# ORCA AIMD Position Step 1, t=0.50 fs, E_Pot=-200423.35263039 kJ mol^-1, Unit is Angstrom
 O     -0.0000420956      0.0000000000     -0.0717020544
 H      0.7674787624      0.0000000000      0.5269634190
 H     -0.7668106204     -0.0000000000      0.5264233816
3
# ORCA AIMD Position Step 2, t=1.00 fs, E_Pot=-200422.51416462 kJ mol^-1, Unit is Angstrom
 O     -0.0000787627      0.0000000000     -0.0699580050
 H      0.7746978179      0.0000000000      0.5133588167
 H     -0.7734476950     -0.0000000000      0.5123463907
3
# ORCA AIMD Position Step 3, t=1.50 fs, E_Pot=-200421.28807923 kJ mol^-1, Unit is Angstrom
 O     -0.0001048405      0.0000000000     -0.0683347014
 H      0.7820278173      0.0000000000      0.5006484186
 H     -0.7803637857     -0.0000000000      0.4992916748
3
# ORCA AIMD Position Step 4, t=2.00 fs, E_Pot=-200419.85204756 kJ mol^-1, Unit is Angstrom
 O     -0.0001163197      0.0000000000     -0.0668790351
 H      0.7894555372      0.0000000000      0.4891826866
 H     -0.7876093080     -0.0000000000      0.4876530361
3
# ORCA AIMD Position Step 5, t=2.50 fs, E_Pot=-200418.36208469 kJ mol^-1, Unit is Angstrom
 O     -0.0001111447      0.0000000000     -0.0656251464
 H      0.7968911122     -0.0000000000      0.4792232000
 H     -0.7951270214     -0.0000000000      0.4777107722
3
# ORCA AIMD Position Step 6, t=3.00 fs, E_Pot=-200416.92470760 kJ mol^-1, Unit is Angstrom
 O     -0.0000896823      0.0000000000     -0.0645936748
 H      0.8041605674     -0.0000000000      0.4709382166
 H     -0.8027371285     -0.0000000000      0.4696242134
3
# ORCA AIMD Position Step 7, t=3.50 fs, E_Pot=-200415.60112440 kJ mol^-1, Unit is Angstrom
 O     -0.0000547146      0.0000000000     -0.0637927582
 H      0.8110142814     -0.0000000000      0.4644094876
 H     -0.8101458499     -0.0000000000      0.4634407746
3
# ORCA AIMD Position Step 8, t=4.00 fs, E_Pot=-200414.43405565 kJ mol^-1, Unit is Angstrom
 O     -0.0000109606      0.0000000000     -0.0632203370
 H      0.8171493493     -0.0000000000      0.4596472322
 H     -0.8169753817     -0.0000000001      0.4591175481
3
# ORCA AIMD Position Step 9, t=4.50 fs, E_Pot=-200413.47620556 kJ mol^-1, Unit is Angstrom
 O      0.0000357097      0.0000000000     -0.0628671763
 H      0.8222413010     -0.0000000001      0.4566096649
 H     -0.8228080863     -0.0000000001      0.4565497401
3
# ORCA AIMD Position Step 10, t=5.00 fs, E_Pot=-200412.80208310 kJ mol^-1, Unit is Angstrom
 O      0.0000792180      0.0000000000     -0.0627199351
 H      0.8259791453     -0.0000000001      0.4552226942
 H     -0.8272364948     -0.0000000001      0.4555996949
3
# ORCA AIMD Position Step 11, t=5.50 fs, E_Pot=-200412.49769467 kJ mol^-1, Unit is Angstrom
 O      0.0001140917      0.0000000000     -0.0627638890
 H      0.8280982694     -0.0000000001      0.4553976718
 H     -0.8299091350     -0.0000000001      0.4561223542
3
# ORCA AIMD Position Step 12, t=6.00 fs, E_Pot=-200412.63488842 kJ mol^-1, Unit is Angstrom
 O      0.0001361064      0.0000000000     -0.0629850218
 H      0.8284073258     -0.0000000001      0.4570451213
 H     -0.8305676103     -0.0000000002      0.4579847294
3
# ORCA AIMD Position Step 13, t=6.50 fs, E_Pot=-200413.24319816 kJ mol^-1, Unit is Angstrom
 O      0.0001427071      0.0000000000     -0.0633714368
 H      0.8268070060     -0.0000000001      0.4600840670
 H     -0.8290720565     -0.0000000002      0.4610789728
3
# ORCA AIMD Position Step 14, t=7.00 fs, E_Pot=-200414.29110747 kJ mol^-1, Unit is Angstrom
 O      0.0001332337      0.0000000000     -0.0639141073
 H      0.8232999192     -0.0000000002      0.4644469246
 H     -0.8254146070     -0.0000000002      0.4653293935
3
# ORCA AIMD Position Step 15, t=7.50 fs, E_Pot=-200415.68384405 kJ mol^-1, Unit is Angstrom
 O      0.0001089342      0.0000000000     -0.0646070251
 H      0.8179916330     -0.0000000002      0.4700803516
 H     -0.8197206387     -0.0000000003      0.4706939740
3
# ORCA AIMD Position Step 16, t=8.00 fs, E_Pot=-200417.27855303 kJ mol^-1, Unit is Angstrom
 O      0.0000728597      0.0000000000     -0.0654468188
 H      0.8110829412     -0.0000000002      0.4769424510
 H     -0.8122393722     -0.0000000003      0.4771611012
3
# ORCA AIMD Position Step 17, t=8.50 fs, E_Pot=-200418.91175698 kJ mol^-1, Unit is Angstrom
 O      0.0000295412      0.0000000000     -0.0664316067
 H      0.8028542026     -0.0000000002      0.4849947452
 H     -0.8033230806     -0.0000000004      0.4847393832
3
# ORCA AIMD Position Step 18, t=9.00 fs, E_Pot=-200420.42977722 kJ mol^-1, Unit is Angstrom
 O     -0.0000155146      0.0000000000     -0.0675593518
 H      0.7936423953     -0.0000000002      0.4941912113
 H     -0.7933961472     -0.0000000005      0.4934425153
3
# ORCA AIMD Position Step 19, t=9.50 fs, E_Pot=-200421.71088793 kJ mol^-1, Unit is Angstrom
 O     -0.0000565162      0.0000000000     -0.0688256293
 H      0.7838128337     -0.0000000002      0.5044638207
 H     -0.7829158078     -0.0000000005      0.5032682918
3
# ORCA AIMD Position Step 20, t=10.00 fs, E_Pot=-200422.67140279 kJ mol^-1, Unit is Angstrom
 O     -0.0000882103      0.0000000000     -0.0702210414
 H      0.7737285116     -0.0000000002      0.5157063797
 H     -0.7723284363     -0.0000000006      0.5141737476
3
# ORCA AIMD Position Step 21, t=10.50 fs, E_Pot=-200423.25620133 kJ mol^-1, Unit is Angstrom
 O     -0.0001066460      0.0000000001     -0.0717287417
 H      0.7637211758     -0.0000000002      0.5277596242
 H     -0.7620284884     -0.0000000007      0.5260507576
3
# ORCA AIMD Position Step 22, t=11.00 fs, E_Pot=-200423.42365005 kJ mol^-1, Unit is Angstrom
 O     -0.0001097769      0.0000000001     -0.0733225412
 H      0.7540685115     -0.0000000002      0.5404005158
 H     -0.7523261297     -0.0000000007      0.5387066888
3
# ORCA AIMD Position Step 23, t=11.50 fs, E_Pot=-200423.13895356 kJ mol^-1, Unit is Angstrom
 O     -0.0000977420      0.0000000001     -0.0749661868
 H      0.7449814298     -0.0000000002      0.5533393010
 H     -0.7434300662     -0.0000000008      0.5518558863
3
# ORCA AIMD Position Step 24, t=12.00 fs, E_Pot=-200422.38415848 kJ mol^-1, Unit is Angstrom
 O     -0.0000727004      0.0000000001     -0.0766141579
 H      0.7366023235     -0.0000000002      0.5662261329
 H     -0.7354484217     -0.0000000008      0.5651256908
3
# ORCA AIMD Position Step 25, t=12.50 fs, E_Pot=-200421.18072308 kJ mol^-1, Unit is Angstrom
 O     -0.0000383466      0.0000000001     -0.0782139872
 H      0.7290138148     -0.0000000002      0.5786674028
 H     -0.7284051767     -0.0000000009      0.5780769492
3
# ORCA AIMD Position Step 26, t=13.00 fs, E_Pot=-200419.61080789 kJ mol^-1, Unit is Angstrom
 O      0.0000007563      0.0000000001     -0.0797097420
 H      0.7222546957     -0.0000000002      0.5902495138
 H     -0.7222667001     -0.0000000010      0.5902354941
3
# ORCA AIMD Position Step 27, t=13.50 fs, E_Pot=-200417.82313988 kJ mol^-1, Unit is Angstrom
 O      0.0000398546      0.0000000001     -0.0810460766
 H      0.7163389615     -0.0000000002      0.6005664882
 H     -0.7169715343     -0.0000000010      0.6011288543
3
# ORCA AIMD Position Step 28, t=14.00 fs, E_Pot=-200416.01750832 kJ mol^-1, Unit is Angstrom
 O      0.0000745653      0.0000000001     -0.0821722411
 H      0.7112741621     -0.0000000002      0.6092475214
 H     -0.7124576642     -0.0000000011      0.6103223310
3
# ORCA AIMD Position Step 29, t=14.50 fs, E_Pot=-200414.41211245 kJ mol^-1, Unit is Angstrom
 O      0.0001012735      0.0000000001     -0.0830455810
 H      0.7070764276     -0.0000000002      0.6159813879
 H     -0.7086838428     -0.0000000012      0.6174501369
3
# ORCA AIMD Position Step 30, t=15.00 fs, E_Pot=-200413.20434530 kJ mol^-1, Unit is Angstrom
 O      0.0001173595      0.0000000001     -0.0836341970
 H      0.7037808098     -0.0000000002      0.6205352745
 H     -0.7056435427     -0.0000000012      0.6222387770
3
# ORCA AIMD Position Step 31, t=15.50 fs, E_Pot=-200412.53611717 kJ mol^-1, Unit is Angstrom
 O      0.0001213215      0.0000000001     -0.0839187587
 H      0.7014465922     -0.0000000002      0.6227677994
 H     -0.7033722097     -0.0000000013      0.6245228226
3
# ORCA AIMD Position Step 32, t=16.00 fs, E_Pot=-200412.47197596 kJ mol^-1, Unit is Angstrom
 O      0.0001128222      0.0000000001     -0.0838934179
 H      0.7001576996     -0.0000000003      0.6226355575
 H     -0.7019484167     -0.0000000014      0.6242528545
3
# ORCA AIMD Position Step 33, t=16.50 fs, E_Pot=-200412.99384968 kJ mol^-1, Unit is Angstrom
 O      0.0000927020      0.0000000001     -0.0835659180
 H      0.7000185471     -0.0000000003      0.6201937529
 H     -0.7014899150     -0.0000000014      0.6214965734
3
# ORCA AIMD Position Step 34, t=17.00 fs, E_Pot=-200414.01232898 kJ mol^-1, Unit is Angstrom
 O      0.0000629489      0.0000000001     -0.0829568325
 H      0.7011452905     -0.0000000003      0.6155903779
 H     -0.7021444170     -0.0000000014      0.6164325278
3
# ORCA AIMD Position Step 35, t=17.50 fs, E_Pot=-200415.39048117 kJ mol^-1, Unit is Angstrom
 O      0.0000266156      0.0000000001     -0.0820979530
 H      0.7036527996     -0.0000000003      0.6090542570
 H     -0.7040752435     -0.0000000015      0.6093364931
3
# ORCA AIMD Position Step 36, t=18.00 fs, E_Pot=-200416.97286798 kJ mol^-1, Unit is Angstrom
 O     -0.0000123477      0.0000000001     -0.0810298843
 H      0.7076376936     -0.0000000003      0.6008776425
 H     -0.7074417115     -0.0000000015      0.6005606960
3
# ORCA AIMD Position Step 37, t=18.50 fs, E_Pot=-200418.61063128 kJ mol^-1, Unit is Angstrom
 O     -0.0000494078      0.0000000001     -0.0797987969
 H      0.7131581474     -0.0000000003      0.5913932976
 H     -0.7123739451     -0.0000000016      0.5905051919
3
# ORCA AIMD Position Step 38, t=19.00 fs, E_Pot=-200420.17437485 kJ mol^-1, Unit is Angstrom
 O     -0.0000799197      0.0000000001     -0.0784526583
 H      0.7202125128     -0.0000000003      0.5809485678
 H     -0.7189440263     -0.0000000016      0.5795839787
3
# ORCA AIMD Position Step 39, t=19.50 fs, E_Pot=-200421.55241572 kJ mol^-1, Unit is Angstrom
 O     -0.0000997437      0.0000000001     -0.0770373230
 H      0.7287197937     -0.0000000003      0.5698790647
 H     -0.7271366586     -0.0000000016      0.5681892456
3
# ORCA AIMD Position Step 40, t=20.00 fs, E_Pot=-200422.64066874 kJ mol^-1, Unit is Angstrom
 O     -0.0001058993      0.0000000001     -0.0755931607
 H      0.7385059307     -0.0000000003      0.5584864161
 H     -0.7368250953     -0.0000000016      0.5566601155
