43
Constructed separated fragments; all Zn-O 3.1 A, en unchanged at Zn-N >=6.5 A; no joint optimization
Zn  0.0000000000  0.0000000000  0.0000000000
O   1.3512586725  2.7900000000  0.0000000000
H   2.3003842161  2.9901516985  0.0000000000
H   0.9198402204  3.6587796724  0.0000000000
O  -1.6324187912  2.1700000000  1.4954293331
H  -1.3322251035  3.0467655290  1.7819008971
H  -2.5580403127  2.1246255373  1.7819008971
O   0.2347099855  1.5500000000 -2.6743992265
H   1.0379962107  1.7320955552 -3.1867198773
H  -0.4786519147  1.9617552065 -3.1867198773
O   1.7992824116  0.9300000000  2.3468452875
H   2.4961264248  0.4268174624  2.7964181460
H   1.7917966116  1.7894929946  2.7964181460
O  -3.0373103958  0.3100000000 -0.5372574424
H  -3.5412767031  1.1323901253 -0.6401770364
H  -3.6970273735 -0.3936199730 -0.6401770364
O   2.6025303468 -0.3100000000 -1.6555167755
H   3.0103673614 -1.1309701756 -1.9726554523
H   3.1917995442  0.3922000233 -1.9726554523
O  -0.7677048422 -0.9300000000  2.8558237472
H  -1.5062473135 -0.6198971975  3.4028989431
H  -0.3232927614 -1.5964132595  3.4028989431
O  -1.2373872958 -1.5500000000 -2.3825139412
H  -2.0738217159 -1.3684200357 -2.8389196569
H  -0.8750324808 -2.3254307259 -2.8389196569
O   2.0795097008 -2.1700000000  0.7594336075
H   1.9241186052 -3.1163556245  0.9049143256
H   3.0316223575 -2.0550354418  0.9049143256
O  -1.2490299491 -2.7900000000  0.5155814060
H  -2.1883216870 -3.0110793200  0.6143486353
H  -0.7882784607 -3.6378520510  0.6143486353
N   2.5053483340 -0.8496181951 -6.0442771202
C   1.5747175345 -1.9629022412 -5.9746020266
C   0.3232118437 -1.8015101961 -6.8518214782
N  -0.4046666461 -0.6009397512 -6.4594981478
H   2.8347373811 -0.7492181101 -6.9993588177
H   1.9988939736  0.0016396450 -5.8201565561
H   2.1023940800 -2.8734525520 -6.2693930701
H   1.2672171952 -2.0697713156 -4.9299847323
H  -0.2793681512 -2.7229641130 -6.7803482626
H   0.6259249977 -1.6774043752 -7.8964734813
H  -1.2264065811 -0.4885085719 -7.0416562359
H  -0.7193640641 -0.6948913433 -5.4988679196
