
                                 *****************
                                 * O   R   C   A *
                                 *****************

                                            #,                                       
                                            ###                                      
                                            ####                                     
                                            #####                                    
                                            ######                                   
                                           ########,                                 
                                     ,,################,,,,,                         
                               ,,#################################,,                 
                          ,,##########################################,,             
                       ,#########################################, ''#####,          
                    ,#############################################,,   '####,        
                  ,##################################################,,,,####,       
                ,###########''''           ''''###############################       
              ,#####''   ,,,,##########,,,,          '''####'''          '####       
            ,##' ,,,,###########################,,,                        '##       
           ' ,,###''''                  '''############,,,                           
         ,,##''                                '''############,,,,        ,,,,,,###''
      ,#''                                            '''#######################'''  
     '                                                          ''''####''''         
             ,#######,   #######,   ,#######,      ##                                
            ,#'     '#,  ##    ##  ,#'     '#,    #''#        ,####,    ,#,          
            ##       ##  ##   ,#'  ##            #'  '#       #'       ,# #          
            ##       ##  #######   ##           ,######,      #####,      #          
            '#,     ,#'  ##    ##  '#,     ,#' ,#      #,     #,   #      #          
             '#######'   ##     ##  '#######'  #'      '#     '####' #    #          



                #########################################################
                #                        -***-                          #
                #          Department of theory and spectroscopy        #
                #                                                       #
                #                      Frank Neese                      #
                #                                                       #
                #     Directorship, Architecture, Infrastructure        #
                #                    SHARK, DRIVERS                     #
                #        Core code/Algorithms in most modules           #
                #                                                       #
                #        Max Planck Institute fuer Kohlenforschung      #
                #                Kaiser Wilhelm Platz 1                 #
                #                 D-45470 Muelheim/Ruhr                 #
                #                      Germany                          #
                #                                                       #
                #                  All rights reserved                  #
                #                        -***-                          #
                #########################################################


                         Program Version 6.1.1  -  RELEASE   -
                                (GIT: $487d211c$)
                          ($2025-11-21 10:33:24 +0100$)


 With contributions from (in alphabetic order):
[Max-Planck-Institut fuer Kohlenforschung]                               
  Daniel Aravena         : Magnetic Suceptibility                        
  Michael Atanasov       : Ab Initio Ligand Field Theory (pilot matlab implementation)
  Alexander A. Auer      : GIAO ZORA, VPT2 properties, NMR spectrum      
  Ute Becker             : All parallelization in ORCA, NUMFREQ, NUMCALC 
  Giovanni Bistoni       : ED, misc. LED, open-shell LED, HFLD           
  Dmytro Bykov           : pre 5.0 version of the SCF Hessian            
  Marcos Casanova-Páez   : Triplet and SCS-CIS(D). UHF-(DLPNO)-IP/EA/STEOM-CCSD. UHF-CVS-IP/STEOM-CCSD   
  Vijay G. Chilkuri      : MRCI spin determinant printing, contributions to CSF-ICE 
  Pauline Colinet        : FMM embedding                                 
  Dipayan Datta          : RHF DLPNO-CCSD density                        
  Achintya Kumar Dutta   : EOM-CC, STEOM-CC                              
  Nicolas Foglia         : Exact transition moments, OPA infrastructure, MCD improvements    
  Dmitry Ganyushin       : Spin-Orbit,Spin-Spin,Magnetic field MRCI      
  Miquel Garcia-Rates    : C-PCM and meta-GGA Hessian, CCSD/C-PCM, Gaussian charge scheme 
  Tiago L. C. Gouveia    : GS-ROHF, GS-ROCIS                             
  Yang Guo               : DLPNO-NEVPT2, F12-NEVPT2, CIM, IAO-localization        
  Andreas Hansen         : Spin unrestricted coupled pair/coupled cluster methods 
  Ingolf Harden          : AUTO-CI MPn and infrastructure                
  Benjamin Helmich-Paris : MC-RPA, TRAH-(SCF,CASSCF), AVAS, COSX integrals, SCF dyn. polar., MC-PDFT, srDFT 
  Lee Huntington         : MR-EOM, pCC                                   
  Robert Izsak           : Overlap fitted RIJCOSX, COSX-SCS-MP3, EOM     
  Riya Kayal             : Wick's Theorem for AUTO-CI, AUTO-CI UHF-CCSDT 
  Emily Kempfer          : AUTO-CI RHF CISDT and CCSDT, approximate NEVPT4
  Christian Kollmar      : KDIIS, OOCD, Brueckner-CCSD(T), CCSD density, CASPT2, CASPT2-K, improved NEVPT2 
  Axel Koslowski         : Symmetry handling                             
  Simone Kossmann        : meta-GGA functionals, TD-DFT gradient, OOMP2, (MP2 Hessian; deprecated post 5.0) 
  Lucas Lang             : DCDCAS, Hyperfine gauge corrections, ICE-SOC+SSC
  Marvin Lechner         : AUTO-CI (C++ implementation), FIC-MRCC        
  Spencer Leger          : CASSCF response                               
  Dagmar Lenk            : GEPOL surface, SMD, ORCA-2-JSON               
  Dimitrios Liakos       : Extrapolation schemes; Compound Job, Property file
  Dimitrios Manganas     : Further ROCIS development; embedding schemes. LFT, Crystal Embedding 
  Dimitrios Pantazis     : SARC Basis sets                               
  Anastasios Papadopoulos: AUTO-CI, single reference methods and gradients 
  Taras Petrenko         : pre 6.0 DFT Hessian and TD-DFT gradient,  ECA, NRVS 
  Petra Pikulova         : Analytic Raman intensities                    
  Peter Pinski           : DLPNO-MP2, DLPNO-MP2 Gradient                 
  Shashank Vittal Rao    : ES-AILFT, MagRelax                            
  Christoph Reimann      : Effective Core Potentials                     
  Marius Retegan         : Local ZFS, SOC                                
  Christoph Riplinger    : Optimizer, TS searches, QM/MM, DLPNO-CCSD(T), (RO)-DLPNO pert. Triples 
  Michael Roemelt        : Original ROCIS implementation, recursive CI coupling coefficients
  Masaaki Saitow         : Open-shell DLPNO-CCSD energy and density      
  Barbara Sandhoefer     : DKH picture change effects                    
  Yorick L. A. Schmerwitz: GMF and freeze-and-release deltaSCF, NEB S-IDPP initial path                    
  Kantharuban Sivalingam : CASSCF convergence/infrastructure, NEVPT2, NEVPT3, NEVPT4(SD), FIC-MRCI and CEPA variants
  Bernardo de Souza      : ESD, SOC TD-DFT                               
  Georgi L. Stoychev     : AutoAux, RI-MP2 NMR, DLPNO-MP2 response, X2C  
  Van Anh Tran           : RI-MP2 g-tensors                              
  Willem Van den Heuvel  : Paramagnetic NMR                              
  Zikuan Wang            : NOTCH, Electric field optimization            
  Frank Wennmohs         : Technical directorship and infrastructure     
  Hang Xu                : AUTO-CI-Response properties                   
                                                                         
[FACCTs GmbH]                                                            
  Markus Bursch, Nicolas Foglia, Miquel Garcia-Rates, Ingolf Harden, Hagen Neugebauer, Anastasios Papadopoulos, 
  Christoph Riplinger, Bernardo de Souza, Georgi L. Stoychev                                                    
                                                                 
  APM, various basis sets, CI-OPT, improved COSX, DLPNO-Multilevel,           
  DOCKER, DRACO, updates on ESD, Fragmentator, GOAT, IRC, LR-CPCM, L-BFGS, MBIS, meta-GGA TD-DFT gradient, ML-optimized integration grids, 
  MM, NACMEs, nearIR, NEB, NEB-TS, NL-DFT gradient (VV10), 2- and 3-layer-ONIOM, interface openCOSMO-RS, QMMM,   
  Crystal-QMMM, RESP, rigid body optimization, SF, symmetry and pop. for TD-DFT, various functionals, SOLVATOR                                   
                                                                         
[Other institutions]                                                     
  V. Asgeirsson          : NEB                                           
  Christoph Bannwarth    : sTDA-DFT, sTD-DFT, PBEh-3c, B97-3c, D3        
  Giovanni Bistoni       : ETS/NOCV, ADLD/ADEX, COVALED                  
  Martin Brehm           : Molecular dynamics                            
  Ronald Cardenas        : ETS/NOCV                                      
  Martina Colucci        : COVALED                                       
  Sebastian Ehlert       : rSCAN, r2SCAN, r2SCAN-3c, D4, dhf basis sets  
  Marvin Friede          : D4 for Fr, Ra, Ac-Lr                          
  Lars Goerigk           : TD-DFT with DH, B97 family of functionals     
  Stefan Grimme          : VdW corrections, initial TS optimization, DFT functionals, gCP, sTDA/sTD-DF 
  Waldemar Hujo          : DFT-NL                                        
  H. Jonsson             : NEB                                           
  Holger Kruse           : gCP                                           
  Marcel Mueller         : wB97X-3c, vDZP basis set                      
  Hagen Neugebauer       : wr2SCAN, Native XTB                           
  Gianluca Regni         : ADLD/ADEX                                     
  Tobias Risthaus        : pre 6.0 range-separated hybrid DFT and stability analysis
  Lukas Wittmann         : regularized MP2, r2SCAN double-hybrids, wr2SCAN        
                                                                         
We gratefully acknowledge several colleagues who have allowed us to      
interface, adapt or use parts of their codes:                            
  Ed Valeev, F. Pavosevic, A. Kumar             : LibInt (2-el integral package), F12 methods 
  Garnet Chan, S. Sharma, J. Yang, R. Olivares  : DMRG                   
  Ulf Ekstrom                                   : XCFun DFT Library      
  Mihaly Kallay                                 : mrcc  (arbitrary order and MRCC methods)
  Frank Weinhold                                : gennbo (NPA and NBO analysis)           
  Simon Mueller                                 : openCOSMO-RS                            
  Christopher J. Cramer and Donald G. Truhlar   : smd solvation model                     
  S Lehtola, MJT Oliveira, MAL Marques          : LibXC Library                           
  Liviu Ungur et al                             : ANISO software                          


 Your calculation uses the libint2 library for the computation of 2-el integrals
 For citations please refer to: http://libint.valeyev.net

 Your ORCA version has been built with support for libXC version: 7.0.0
 For citations please refer to: https://libxc.gitlab.io

 This ORCA versions uses:
   CBLAS   interface :  Fast vector & matrix operations
   LAPACKE interface :  Fast linear algebra routines
   SCALAPACK package :  Parallel linear algebra routines
   Shared memory     :  Shared parallel matrices
   BLAS/LAPACK       :  OpenBLAS 0.3.29  USE64BITINT DYNAMIC_ARCH NO_AFFINITY Haswell SINGLE_THREADED
        Core in use  :  Haswell
   Copyright (c) 2011-2014, The OpenBLAS Project


  ***********************************
  * Starting time: Mon Sep 28 12:46:20 2026
  * Host name:     NotebookAW
  * Process ID:    39
  * Working dir.:  /home/henrique/aimd-workshop/exercicios-pal8-20260928/zn_parede
  ***********************************

NOTE: MaxCore=256 MB was set to SCF,MP2,MDCI,CIPSI,MRCI,RASCI and CIS
      => If you want to overwrite this, your respective input block should be placed after the MaxCore statement


***************************************
The coordinates will be read from file: zn_solvato.xyz
***************************************


Your calculation utilizes the semiempirical GFN2-xTB method
Please cite in your paper:
Bannwarth, C.; Ehlert S.; Grimme, S. J. Chem. Theory Comput. 2019, 15, 1652.
   

================================================================================

================================================================================
                                        WARNINGS
                       Please study these warnings very carefully!
================================================================================


WARNING: Gradients are needed
  ===> : At least TightSCF should be used for SCF convergence

WARNING: Found dipole moment calculation with XTB calculation
  ===> : Switching off dipole moment calculation


================================================================================
                                       INPUT FILE
================================================================================
NAME = zn_parede.inp
|  1> # Minicurso AIMD / ORCA 6.1.1 - zn_parede
|  2> # Estas linhas de comentario explicam as escolhas e nao alteram o calculo.
|  3> # Execute um caso por vez; mantenha o arquivo XYZ na pasta de execucao.
|  4> 
|  5> # Integra o movimento dos nucleos. PAL8 solicita oito recursos. XTB2 chama
|  6> # GFN2-xTB externo; PAL8 tambem define suas threads. ALPB(water) representa o
|  7> # ambiente continuo.
|  8> ! MD XTB2 ALPB(water) PAL8
|  9> 
| 10> # Memoria em MB por processo. 256 x 8 = 2048 MB de orcamento, alem de memoria
| 11> # adicional.
| 12> %maxcore 256
| 13> 
| 14> # Parametros da dinamica: as unidades sao explicitas em cada linha.
| 15> %md
| 16>   # Passo de integracao em femtossegundos. 1 fs = 1e-15 s.
| 17>   Timestep 0.5_fs
| 18>   # Semente fixa para repetir a preparacao aleatoria no mesmo ambiente.
| 19>   Randomize 42
| 20>   # Banho CSVR a 300 K; Timecon 100 fs regula o acoplamento. A temperatura
| 21>   # pode flutuar.
| 22>   Thermostat CSVR 300_K Timecon 100_fs
| 23>   # Parede harmonica esferica; centro e raio em angstrom. Spring em kJ mol-1
| 24>   # A-2; nao e caixa periodica.
| 25>   Cell Sphere 0, 0, 0, 6.0_A Spring 10.0
| 26>   # Mede uma distancia, sem impor restricao. Indices atomicos comecam em zero:
| 27>   # Zn=0, N=1 e 4.
| 28>   Manage_Colvar Define 1 Distance Atom 0 Atom 1
| 29>   # Mede uma distancia, sem impor restricao. Indices atomicos comecam em zero:
| 30>   # Zn=0, N=1 e 4.
| 31>   Manage_Colvar Define 2 Distance Atom 0 Atom 4
| 32>   # Mede uma distancia, sem impor restricao. Indices atomicos comecam em zero:
| 33>   # Zn=0, N=1 e 4.
| 34>   Manage_Colvar Define 3 Distance Atom 0 Atom 13
| 35>   # Mede uma distancia, sem impor restricao. Indices atomicos comecam em zero:
| 36>   # Zn=0, N=1 e 4.
| 37>   Manage_Colvar Define 4 Distance Atom 0 Atom 16
| 38>   # Mede uma distancia, sem impor restricao. Indices atomicos comecam em zero:
| 39>   # Zn=0, N=1 e 4.
| 40>   Manage_Colvar Define 5 Distance Atom 0 Atom 19
| 41>   # Mede uma distancia, sem impor restricao. Indices atomicos comecam em zero:
| 42>   # Zn=0, N=1 e 4.
| 43>   Manage_Colvar Define 6 Distance Atom 0 Atom 22
| 44>   # Mede uma distancia, sem impor restricao. Indices atomicos comecam em zero:
| 45>   # Zn=0, N=1 e 4.
| 46>   Manage_Colvar Define 7 Distance Atom 0 Atom 25
| 47>   # Mede uma distancia, sem impor restricao. Indices atomicos comecam em zero:
| 48>   # Zn=0, N=1 e 4.
| 49>   Manage_Colvar Define 8 Distance Atom 0 Atom 28
| 50>   # Mede uma distancia, sem impor restricao. Indices atomicos comecam em zero:
| 51>   # Zn=0, N=1 e 4.
| 52>   Manage_Colvar Define 9 Distance Atom 0 Atom 31
| 53>   # Mede uma distancia, sem impor restricao. Indices atomicos comecam em zero:
| 54>   # Zn=0, N=1 e 4.
| 55>   Manage_Colvar Define 10 Distance Atom 0 Atom 34
| 56>   # Mede uma distancia, sem impor restricao. Indices atomicos comecam em zero:
| 57>   # Zn=0, N=1 e 4.
| 58>   Manage_Colvar Define 11 Distance Atom 0 Atom 37
| 59>   # Mede uma distancia, sem impor restricao. Indices atomicos comecam em zero:
| 60>   # Zn=0, N=1 e 4.
| 61>   Manage_Colvar Define 12 Distance Atom 0 Atom 40
| 62>   # Le posicoes e velocidades da preparacao fornecida. Copie tambem o
| 63>   # .mdrestart para esta pasta.
| 64>   Restart "preparacao_termica.mdrestart"
| 65>   # Grava um quadro XYZ por passo. O nome identifica esta trajetoria.
| 66>   Dump Position Stride 1 Filename "zn_parede-traj.xyz"
| 67>   # Numero de passos desta etapa. Duracao fisica = numero de passos x
| 68>   # timestep.
| 69>   Run 1000
| 70> end
| 71> 
| 72> # Le o XYZ: carga total 2, multiplicidade 1. O nome do arquivo deve coincidir
| 73> # exatamente.
| 74> * xyzfile 2 1 zn_solvato.xyz
| 75> 
| 76>                          ****END OF INPUT****
================================================================================

-------------------------------------------------------------------------------------------

MD module early startup:
  Installed signal handlers.
  Extracted executable name.
  Initialized library credit list.
  Parsed command line without errors.
  Initialized console color.
Done.

Will write log file to "zn_parede.md.log".

Command line:  /home/henrique/bin/orca611/orca_md -orca zn_parede

-------------------------------------------------------------------------------------------


     _____    ___    _   _       _                  ______ ______  _____   ___  
    /  ___|  / _ \  | \ | |     | |           _    /  __  \| ___ \/  __ \ / _ \ 
    \ `--.  / /_\ \ |  \| |   __| | _   _   _| |_  | |  | || |_/ /| /  \// /_\ \
     `--. \ |  _  | | . ` |  / _` || | | | |_   _| | |  | ||    / | |    |  _  |
    /\__/ / | | | | | |\  | | (_| || |_| |   |_|   | \__/ || |\ \ | \__/\| | | |
    \____/  \_| |_/ \_| \_/  \__,_| \__, |          \____/ \_| \_| \____/\_| |_/
                                     __/ |                                      
                                    |___/                                       


    ####################################################################
    ########     Scriptable Nuclear Dynamics (SANdy) + ORCA     ########
    ########           (c) Martin Brehm, 2016 - 2025            ########
    ########           Paderborn University, Germany            ########
    ########           https://sanscript.org/orcamd             ########
    ####################################################################


  * Compiled as ORCA module. Called from ORCA.
  * ORCA base name: "zn_parede"
  * Source code version: Jun 07 2025, compiled at Nov 24 2025 07:23:22.
  * Enabled features: SAN_MD, SAN_INTERPRETER
  * Libraries: KISS_FFT, LBFGSBC
  * Executable name: "/home/henrique/bin/orca611/orca_md"
  * Messages are redirected, Errors are redirected, Output is redirected, Input is redirected
  * Running on NotebookAW at Mon Sep 28 12:46:21 2026 (PID 71)
  * Running in /home/henrique/aimd-workshop/exercicios-pal8-20260928/zn_parede

    -----------------------------------------------

    Technical information:

  * Compiler:      LLVM, CLANG 20.1.6, "Clang 20.1.6 (/home/frankw/CompEnv/src/llvm2016/llvm-project/clang 47addd4540b4c393e478ba92bea2589e330c57fb)", Linux, __cplusplus=201103L
  * Compile host:  x86_64, Little Endian, char=8bits, int=4b, long=8b, ll=8b, addr=8b, 0x01020304=4,3,2,1.
  * Class sizes:   InputElem=248, ValuePair=112, Type=96, Value=8, VMToken=8, VMInst=8
  * Compile flags: MMX, SSE, SSE2, SSE3, SSSE3, SSE4.1, SSE4.2, POPCNT, FMA3, AVX, AVX2
  * Local machine: Intel(R) Core(TM) Ultra 9 185H (GenuineIntel), Family 6, Model 170, Stepping 4
                   1 CPU, 11 cores, 22 threads,  Uptime 18m 20s
                   MMX, SSE, SSE2, SSE3, SSSE3, SSE4.1, SSE4.2, POPCNT, AES, FMA3, AVX, AVX2, SHA
                   Caches: 11x L1d (528 KiB), 11x L1i (704 KiB), 11x L2 (22 MiB), 1x L3 (24 MiB)
  * Op. System:    Ubuntu 24.04.4 LTS, Linux version 6.18.33.2-microsoft-standard-WSL2 
  * Phys. Memory:  15.38 GiB total,  13.68 GiB free
  * Stack size:    8.00 MiB


The following libraries are included:

  * KISS FFT,   Version 131.1.0 (02/2021), License: BSD 3-clause
      (c) 2003-2010 Mark Borgerding, see https://github.com/mborgerding/kissfft

  * L-BFGS-B-C, Version 3.0 (04/2011),     License: BSD 3-clause
      (c) Stephen Becker, see https://github.com/stephenbeckr/L-BFGS-B-C

  * MT19937 Pseudo Random Number Gen.,     License: Custom (permissive)
      (c) 1997-2005 Makoto Matsumoto, Takuji Nishimura, Mutsuo Saito, see https://github.com/clibs/mt19937ar


Initializing SAN engine...
  24 physical quantities and 49 units added.
  Initialized SAN language:
    97 operators, 57 keywords, 4 namespaces, 35 types, 183 flags
Done.


>>> Reading Input File >>>

Reading input file "zn_parede.mdinput" ...
  2629 bytes read.
  55 lines.
Tokenizing input...
Found 130 tokens in file.
  ( 78 identifiers,  47 numeric literals,  35 comments,  
     3 operators,     2 string literals )

Warning: Line endings are non-uniform: 1 x \n, 54 x \r\n

<<< Finished Reading Input File (took 0.000 seconds) <<<


Using the following settings:
  Interpret:              true
  Execution:              SAN-VM
  Parser verbose level:   1
  Execute verbose level:  2
  Syntax highlighting:    0
  Static vars:            false
  Dynamic types:          true
  Max. recursion depth:   200
  Max. nesting depth:     1000
  Max. argument count:    100
  Only parse:             false


>>> Parsing Input Script >>>

Handled 4 underscore identifiers.
Handling module imports...
  Importing module "Math" to global namespace.
  Importing module "MD" to global namespace.
Handled 2 module imports.
Handled 3 operators.
Grouped 2 commas.
Removed 1 commas.
Handled 49 variable occurrences.
Assigned 32 identifiers.
Handling functions,      iteration  1...

BuildArgumentList(): Warning: Not considering more than 100 function arguments.
In zn_parede.mdinput:14:
      Manage_Colvar Define 1 Distance Atom 0 Atom 1
                             ^^^^^^^^
If required, you can increase the limit via the "$MaxArgs <n>$" directive.

                         iteration  2...
                         iteration  3...
Handling "FOR" loops...
Handling AutoDecl,       iteration  1...
No auto declarations.
Assigned 42 flags, re-doing function handling...
Handling functions ( 2), iteration  1...
  Moving "Void" argument 2 ("Thermostat") of function "Randomize" up 1 levels to "ROOT".
  Moving "Void" argument 8 ("Manage_Colvar") of function "Cell" up 1 levels to "ROOT".
                         iteration  2...
Handling "FOR" loops...
Handling AutoDecl,       iteration  1...
No auto declarations.
Handling functions, final pass...
  Moving "Void" argument 2 ("Dump") of function "Restart" up 1 levels to "ROOT".
Function handling done (2 macro-iterations, 0.021 seconds).
Handling keywords,       iteration  1...
Prepared 19 argument lists.
Assigned 104 read-only flags.
Assigned 125 simple VP flags.
Assigned 124 tree IDs.

Warning: The "Cell" command has been renamed to "Walls". Please adapt your input.
In zn_parede.mdinput:11:
      Cell Sphere 0, 0, 0, 6.0_A Spring 10.0
      ^^^^


<<< Finished Parsing Input Script (took 0.022 seconds) <<<


SAN-VM: Compiling...
  Optimization level: Not specified. Using default ("-O2").
Done (took 0.000 seconds).


  Part              # Tokens    # Registers    # Shortcuts    # Optimizations
  ---------------------------------------------------------------------------
  Main Program           100              0              0                  0


-------------------------------------------------------------------------------------------

>>> Initializing MD engine with interface "ORCA" >>>



>>>>>>>>>>>>>>>>>>>>>>>>>>>>>>>>>>>>>>>>>>>>>>>>>>>>
>>>   Output of System Information (from ORCA)   >>>
>>>>>>>>>>>>>>>>>>>>>>>>>>>>>>>>>>>>>>>>>>>>>>>>>>>>

---------------------------------
CARTESIAN COORDINATES (ANGSTROEM)
---------------------------------
  Zn     0.000000    0.000000    0.000000
  N      0.149459   -0.643941    1.931028
  C     -0.613790   -1.888710    2.007149
  C     -1.906170   -1.691143    1.219029
  N     -1.558641   -1.300268   -0.149013
  H      1.105966   -0.780552    2.249850
  H     -0.265596    0.035297    2.561279
  H     -0.030828   -2.682900    1.539753
  H     -0.843792   -2.181784    3.036453
  H     -2.476682   -0.881173    1.675189
  H     -2.508155   -2.604419    1.251788
  H     -1.273240   -2.130458   -0.659028
  H     -2.391491   -0.945508   -0.622087
  O     -0.012409    0.561788   -1.928448
  H     -0.790171    0.637190   -2.527775
  H      0.612736    1.263773   -2.183810
  O      1.553238    1.291425    0.295098
  H      2.015462    1.682410   -0.463101
  H      2.226355    0.964787    0.921956
  O      1.357747   -1.484514   -0.626273
  H      1.427481   -1.556334   -1.584493
  H      2.267538   -1.559508   -0.283706
  O     -1.243922    1.554495    0.551291
  H     -2.021337    1.842012    0.034107
  H     -0.776174    2.358035    0.801378
  O      3.990445   -1.957372    0.204311
  H      4.096344   -2.885952    0.430416
  H      4.708818   -1.721963   -0.391173
  O     -2.167581    0.565433   -3.519216
  H     -2.835460    0.235029   -2.887998
  H     -2.135897   -0.062316   -4.244233
  O     -3.500963    2.501800   -0.722575
  H     -4.090105    3.020646   -0.167795
  H     -3.317532    3.014557   -1.516483
  O      3.087593   -0.101279    2.089005
  H      3.513907   -0.760501    1.514635
  H      3.729629    0.166897    2.748786
  O     -3.890323   -0.131494   -1.478812
  H     -4.814570   -0.388472   -1.494210
  H     -3.847621    0.781578   -1.135603
  O      2.053031    2.399231   -2.289345
  H      1.840371    3.329935   -2.398943
  H      2.719602    2.178816   -2.945498

----------------------------
CARTESIAN COORDINATES (A.U.)
----------------------------
  NO LB      ZA    FRAG     MASS         X           Y           Z
   0 Zn   30.0000    0    65.380    0.000000    0.000000    0.000000
   1 N     7.0000    0    14.007    0.282437   -1.216873    3.649115
   2 C     6.0000    0    12.011   -1.159895   -3.569144    3.792962
   3 C     6.0000    0    12.011   -3.602139   -3.195797    2.303630
   4 N     7.0000    0    14.007   -2.945404   -2.457151   -0.281594
   5 H     1.0000    0     1.008    2.089972   -1.475029    4.251601
   6 H     1.0000    0     1.008   -0.501903    0.066701    4.840116
   7 H     1.0000    0     1.008   -0.058257   -5.069946    2.909712
   8 H     1.0000    0     1.008   -1.594535   -4.122975    5.738065
   9 H     1.0000    0     1.008   -4.680250   -1.665175    3.165649
  10 H     1.0000    0     1.008   -4.739727   -4.921639    2.365536
  11 H     1.0000    0     1.008   -2.406074   -4.025983   -1.245382
  12 H     1.0000    0     1.008   -4.519263   -1.786752   -1.175575
  13 O     8.0000    0    15.999   -0.023449    1.061625   -3.644239
  14 H     1.0000    0     1.008   -1.493207    1.204114   -4.776802
  15 H     1.0000    0     1.008    1.157904    2.388185   -4.126802
  16 O     8.0000    0    15.999    2.935195    2.440440    0.557655
  17 H     1.0000    0     1.008    3.808671    3.179295   -0.875134
  18 H     1.0000    0     1.008    4.207201    1.823183    1.742244
  19 O     8.0000    0    15.999    2.565769   -2.805324   -1.183484
  20 H     1.0000    0     1.008    2.697548   -2.941045   -2.994257
  21 H     1.0000    0     1.008    4.285026   -2.947043   -0.536127
  22 O     8.0000    0    15.999   -2.350673    2.937569    1.041788
  23 H     1.0000    0     1.008   -3.819773    3.480897    0.064452
  24 H     1.0000    0     1.008   -1.466757    4.456041    1.514386
  25 O     8.0000    0    15.999    7.540848   -3.698898    0.386091
  26 H     1.0000    0     1.008    7.740969   -5.453658    0.813367
  27 H     1.0000    0     1.008    8.898377   -3.254038   -0.739209
  28 O     8.0000    0    15.999   -4.096135    1.068514   -6.650354
  29 H     1.0000    0     1.008   -5.358242    0.444141   -5.457525
  30 H     1.0000    0     1.008   -4.036260   -0.117761   -8.020437
  31 O     8.0000    0    15.999   -6.615861    4.727717   -1.365468
  32 H     1.0000    0     1.008   -7.729178    5.708194   -0.317087
  33 H     1.0000    0     1.008   -6.269227    5.696686   -2.865737
  34 O     8.0000    0    15.999    5.834705   -0.191389    3.947648
  35 H     1.0000    0     1.008    6.640323   -1.437139    2.862245
  36 H     1.0000    0     1.008    7.047977    0.315389    5.194453
  37 O     8.0000    0    15.999   -7.351645   -0.248487   -2.794551
  38 H     1.0000    0     1.008   -9.098218   -0.734105   -2.823649
  39 H     1.0000    0     1.008   -7.270950    1.476968   -2.145979
  40 O     8.0000    0    15.999    3.879667    4.533889   -4.326235
  41 H     1.0000    0     1.008    3.477796    6.292666   -4.533345
  42 H     1.0000    0     1.008    5.139303    4.117365   -5.566184

Doing XTB calculation. Basis set is not printed.

############################################
   Total Atom Count:              43
   Total System Mass:        305.630 a.m.u.
   Total Basis Dimension:          0
   Total Electron Number:          0
   Total Charge:                   2
   Total Multiplicity:             1
  ------------------------------------------
   ReducePrint:                 true
   Print Mulliken Pop:             1
   Print Loewdin Pop:              1
   Print Mayer Pop:                1
   Print Orbital Energies:         1
############################################

<<<<<<<<<<<<<<<<<<<<<<<<<<<<<<<<<<<<<<<<<<<<<<<<<<<<
<<<          End of System Information           <<<
<<<<<<<<<<<<<<<<<<<<<<<<<<<<<<<<<<<<<<<<<<<<<<<<<<<<


Initializing regions...

Defined regions:
         All:    43 atoms,    305.630 a.m.u.
          QM:   All
      Active:   All



### System Geometry ###

  * Region "All" = "Active" = "QM":
      Bounding box: from (   -4.815 |   -2.886 |   -4.244 )
                      to (    4.709 |    3.330 |    3.036 ) Angstrom
      System extent:     (    9.523 |    6.216 |    7.281 ) Angstrom
      Center of mass:    (   -0.113 |    0.044 |   -0.202 ) Angstrom
      Total mass:           305.630 a.m.u.

      Moment of inertia: (      1239.08 |       177.64 |      -266.60 )
                         (       177.64 |      2034.73 |       256.58 ) a.m.u. Angstrom^2
                         (      -266.60 |       256.58 |      1922.61 )
      Singular values:   (      1078.65 |      1875.44 |      2242.33 ) a.m.u. Angstrom^2



Smallest interatomic distance from active region: 0.958873 Angstrom (atoms 34 - 36).


<<< MD engine initialization done (took 0.342 seconds) <<<


###############################################################
########        Executing Input Script (SAN-VM)        ########
###############################################################

Execution verbose level is 2.

-------------------------------------------------------------------------------------------



>>>>>> Timestep( 0.5_fs )

Setting integration time step to 0.50 fs.

The lightest element in the active region has an atomic mass of 1.008 a.m.u.
Recommending time step not larger than 0.50 .. 1.00 fs.
  --> choice seems reasonable


>>>>>> Randomize( 42 )

Initialized random number generator seed to 42.


>>>>>> Thermostat( CSVR, 300_K, Timecon, 100_fs )

Switching on thermostat for region "All": Type CSVR, temperature 300.00 K, time constant 100.00 fs, global.


>>>>>> Cell( Sphere, 0, 0, 0, 6_A, Spring, 10.0 )


Warning: The "Cell" command has been renamed to "Walls". Please adapt your input.
In zn_parede.mdinput:11:
      Cell Sphere 0, 0, 0, 6.0_A Spring 10.0
      ^^^^


Note: In function func_Walls(): Found length value "0" without unit - assuming it is in Angstrom.
In zn_parede.mdinput:11:
      Cell Sphere 0, 0, 0, 6.0_A Spring 10.0
                  ^


Note: In function func_Walls(): Found length value "0" without unit - assuming it is in Angstrom.
In zn_parede.mdinput:11:
      Cell Sphere 0, 0, 0, 6.0_A Spring 10.0
                     ^


Note: In function func_Walls(): Found length value "0" without unit - assuming it is in Angstrom.
In zn_parede.mdinput:11:
      Cell Sphere 0, 0, 0, 6.0_A Spring 10.0
                        ^

Switched on spherical wall with center ( 0.00 | 0.00 | 0.00 ) and radius 6.00 Angstrom.

Note: In function func_Walls(): Found spring constant value "10" without unit - assuming it is in kJ mol^-1 Angstrom^-2.
In zn_parede.mdinput:11:
      Cell Sphere 0, 0, 0, 6.0_A Spring 10.0
                                        ^^^^

Set wall spring constant to 10.000 kJ mol^-1 Angstrom^-2.


>>>>>> Manage_Colvar( Define, 1, Distance, Atom, 0, Atom, 1 )

Initializing Colvar 1: Distance { 0 } <--> { 1 }, direction XYZ, curr. val.    2.041 Angstrom.


>>>>>> Manage_Colvar( Define, 2, Distance, Atom, 0, Atom, 4 )

Initializing Colvar 2: Distance { 0 } <--> { 4 }, direction XYZ, curr. val.    2.035 Angstrom.


>>>>>> Manage_Colvar( Define, 3, Distance, Atom, 0, Atom, 13 )

Initializing Colvar 3: Distance { 0 } <--> { 13 }, direction XYZ, curr. val.    2.009 Angstrom.


>>>>>> Manage_Colvar( Define, 4, Distance, Atom, 0, Atom, 16 )

Initializing Colvar 4: Distance { 0 } <--> { 16 }, direction XYZ, curr. val.    2.041 Angstrom.


>>>>>> Manage_Colvar( Define, 5, Distance, Atom, 0, Atom, 19 )

Initializing Colvar 5: Distance { 0 } <--> { 19 }, direction XYZ, curr. val.    2.107 Angstrom.


>>>>>> Manage_Colvar( Define, 6, Distance, Atom, 0, Atom, 22 )

Initializing Colvar 6: Distance { 0 } <--> { 22 }, direction XYZ, curr. val.    2.066 Angstrom.


>>>>>> Manage_Colvar( Define, 7, Distance, Atom, 0, Atom, 25 )

Initializing Colvar 7: Distance { 0 } <--> { 25 }, direction XYZ, curr. val.    4.449 Angstrom.


>>>>>> Manage_Colvar( Define, 8, Distance, Atom, 0, Atom, 28 )

Initializing Colvar 8: Distance { 0 } <--> { 28 }, direction XYZ, curr. val.    4.172 Angstrom.


>>>>>> Manage_Colvar( Define, 9, Distance, Atom, 0, Atom, 31 )

Initializing Colvar 9: Distance { 0 } <--> { 31 }, direction XYZ, curr. val.    4.363 Angstrom.


>>>>>> Manage_Colvar( Define, 10, Distance, Atom, 0, Atom, 34 )

Initializing Colvar 10: Distance { 0 } <--> { 34 }, direction XYZ, curr. val.    3.729 Angstrom.


>>>>>> Manage_Colvar( Define, 11, Distance, Atom, 0, Atom, 37 )

Initializing Colvar 11: Distance { 0 } <--> { 37 }, direction XYZ, curr. val.    4.164 Angstrom.


>>>>>> Manage_Colvar( Define, 12, Distance, Atom, 0, Atom, 40 )

Initializing Colvar 12: Distance { 0 } <--> { 40 }, direction XYZ, curr. val.    3.900 Angstrom.


>>>>>> Restart( "preparacao_termica.mdrestart" )

Reading restart file "preparacao_termica.mdrestart"...
  Reading data from restart file "preparacao_termica.mdrestart" ...
    Found 43 atoms.
    Starting from simulation step 200.
    Starting from simulation time 100.00 fs.
Success.


### System Geometry ###

  * Region "All" = "Active" = "QM":
      Bounding box: from (   -4.932 |   -2.861 |   -4.564 )
                      to (    5.448 |    2.809 |    3.154 ) Angstrom
      System extent:     (   10.379 |    5.670 |    7.718 ) Angstrom
      Center of mass:    (   -0.113 |    0.044 |   -0.202 ) Angstrom

      Moment of inertia: (      1275.13 |       187.66 |      -236.42 )
                         (       187.66 |      2283.65 |       290.67 ) a.m.u. Angstrom^2
                         (      -236.42 |       290.67 |      2001.49 )
      Singular values:   (      1141.54 |      1951.99 |      2466.74 ) a.m.u. Angstrom^2




>>>>>> Dump( Position, Stride, 1, Filename, "zn_parede-traj.xyz" )

Modified writing position trajectory for region "all": Format XYZ, stride 1, filename "zn_parede-traj.xyz", append.


>>>>>> Run( 1000 )


***************************************************
****    Starting MD loop for     1000 steps    ****
***************************************************


>>> Initial Wall Info >>>
    Active wall has spherical geometry.
    Wall centered at ( 0.000 | 0.000 | 0.000 ) with radius 6.000 Angstrom.
    All atoms are inside the wall.
    The atom closest to the wall has a distance of 0.324 Angstrom.
    Wall volume:     904.779 Angstrom^3
    Wall surface:    452.389 Angstrom^2
    Cell mass density: 0.5609 g/cm^3
    Spring constant of the wall is 10.000 kJ mol^-1 Angstrom^-2.
    Wall is fixed.
<<< Initial Wall Info <<<


Defined regions:
         All:    43 atoms,    305.630 a.m.u.
          QM:   All
      Active:   All


Dump: Will write Position data of region "All" in XYZ format with stride 1 to "zn_parede-traj.xyz" (append).

Hint: To compute properties (dipole, etc.) in each step, specify "dump properties" before run.

Active Thermostats:
  (*) Region "All": Type CSVR, temperature 300.00 K, time constant 100.00 fs, global.

Defined Colvars:
  Colvar  1: Distance { 0 } <--> { 1 }, direction XYZ, curr. val.    2.116 Angstrom.
  Colvar  2: Distance { 0 } <--> { 4 }, direction XYZ, curr. val.    2.039 Angstrom.
  Colvar  3: Distance { 0 } <--> { 13 }, direction XYZ, curr. val.    1.966 Angstrom.
  Colvar  4: Distance { 0 } <--> { 16 }, direction XYZ, curr. val.    2.006 Angstrom.
  Colvar  5: Distance { 0 } <--> { 19 }, direction XYZ, curr. val.    2.226 Angstrom.
  Colvar  6: Distance { 0 } <--> { 22 }, direction XYZ, curr. val.    2.089 Angstrom.
  Colvar  7: Distance { 0 } <--> { 25 }, direction XYZ, curr. val.    4.841 Angstrom.
  Colvar  8: Distance { 0 } <--> { 28 }, direction XYZ, curr. val.    4.430 Angstrom.
  Colvar  9: Distance { 0 } <--> { 31 }, direction XYZ, curr. val.    4.239 Angstrom.
  Colvar 10: Distance { 0 } <--> { 34 }, direction XYZ, curr. val.    3.682 Angstrom.
  Colvar 11: Distance { 0 } <--> { 37 }, direction XYZ, curr. val.    4.522 Angstrom.
  Colvar 12: Distance { 0 } <--> { 40 }, direction XYZ, curr. val.    4.016 Angstrom.


Will write restart file to "zn_parede.mdrestart" after each step.
Will write energy statistics to "zn_parede-md-ener.csv" after each step.
Will write Colvar values to "zn_parede-colvars.csv" after each step.

The system contains 129 active degrees of freedom (43 active atoms * 3).

Smallest interatomic distance from active region: 0.910938 Angstrom (atoms 28 - 30).



       Step |  Sim. Time | Iter |  t_Ener |  t_Grad |     Temp |     E_Kin |         E_Pot |         E_Tot |      Cons.Qty | E.Drift | Av.Press.
            |       [fs] |      |     [s] |     [s] |      [K] | [Hartree] |     [Hartree] |     [Hartree] |     [Hartree] |     [K] |     [bar]
------------|------------|------|---------|---------|----------|-----------|---------------|---------------|---------------|---------|-------------
        200        100.0             0.10               167.02    0.034115      -65.114181      -65.080066                                      
        201        100.5             0.03               181.42    0.037056      -65.116827      -65.079772      -65.080157      0.00        0.00
        202        101.0             0.03               197.16    0.040271      -65.120642      -65.080371      -65.080271     -0.28        0.00
        203        101.5             0.03               209.05    0.042700      -65.123780      -65.081080      -65.080349     -0.47        0.00
        204        102.0             0.03               217.94    0.044516      -65.124970      -65.080454      -65.080371     -0.52        0.00
        205        102.5             0.02               215.69    0.044056      -65.123783      -65.079727      -65.080338     -0.44        0.00
        206        103.0             0.02               199.91    0.040834      -65.120565      -65.079731      -65.080269     -0.27        0.00
        207        103.5             0.03               175.31    0.035808      -65.116331      -65.080523      -65.080187     -0.08        0.00
        208        104.0             0.02               154.30    0.031518      -65.112396      -65.080878      -65.080118      0.09        0.00
        209        104.5             0.02               143.12    0.029234      -65.109840      -65.080605      -65.080079      0.19        0.00
        210        105.0             0.02               142.38    0.029082      -65.109259      -65.080177      -65.080078      0.19        0.00
        211        105.5             0.02               149.17    0.030469      -65.110665      -65.080196      -65.080118      0.09        0.00
        212        106.0             0.02               162.85    0.033264      -65.113434      -65.080169      -65.080191     -0.08        0.00
        213        106.5             0.02               175.87    0.035922      -65.116464      -65.080541      -65.080273     -0.29        0.00
        214        107.0             0.03               189.84    0.038776      -65.118539      -65.079763      -65.080328     -0.42        0.00
        215        107.5             0.02               190.28    0.038867      -65.118902      -65.080035      -65.080324     -0.41        0.00
        216        108.0             0.02               182.21    0.037218      -65.117695      -65.080477      -65.080255     -0.24        0.00
        217        108.5             0.03               170.88    0.034905      -65.116087      -65.081182      -65.080168     -0.03        0.00
        218        109.0             0.03               169.77    0.034677      -65.115516      -65.080838      -65.080124      0.08        0.00
        219        109.5             0.02               178.47    0.036454      -65.116690      -65.080236      -65.080152      0.01        0.00
        220        110.0             0.03               190.63    0.038937      -65.119207      -65.080270      -65.080224     -0.17        0.00
        221        110.5             0.02               202.30    0.041322      -65.121941      -65.080619      -65.080288     -0.32        0.00
        222        111.0             0.02               209.60    0.042813      -65.123852      -65.081039      -65.080315     -0.39        0.00
        223        111.5             0.03               213.88    0.043688      -65.124463      -65.080776      -65.080304     -0.36        0.00
        224        112.0             0.03               220.43    0.045026      -65.123848      -65.078822      -65.080274     -0.29        0.00
        225        112.5             0.02               205.78    0.042032      -65.122309      -65.080278      -65.080235     -0.19        0.00
        226        113.0             0.02               200.46    0.040945      -65.120442      -65.079497      -65.080197     -0.10        0.00
        227        113.5             0.03               197.10    0.040259      -65.118787      -65.078528      -65.080165     -0.02        0.00
        228        114.0             0.02               194.50    0.039729      -65.117774      -65.078045      -65.080146      0.03        0.00
        229        114.5             0.03               194.88    0.039807      -65.117656      -65.077849      -65.080148      0.02        0.00
        230        115.0             0.02               198.30    0.040504      -65.118365      -65.077860      -65.080178     -0.05        0.00
        231        115.5             0.02               202.16    0.041292      -65.119428      -65.078135      -65.080230     -0.18        0.00
        232        116.0             0.02               206.63    0.042205      -65.120064      -65.077859      -65.080285     -0.31        0.00
        233        116.5             0.02               206.02    0.042081      -65.119496      -65.077415      -65.080310     -0.38        0.00
        234        117.0             0.03               196.07    0.040049      -65.117399      -65.077350      -65.080279     -0.30        0.00
        235        117.5             0.02               183.56    0.037494      -65.114332      -65.076839      -65.080201     -0.11        0.00
        236        118.0             0.02               172.76    0.035289      -65.111523      -65.076235      -65.080123      0.08        0.00
        237        118.5             0.02               165.93    0.033893      -65.110183      -65.076291      -65.080092      0.16        0.00
        238        119.0             0.02               172.73    0.035282      -65.110841      -65.075560      -65.080114      0.10        0.00
        239        119.5             0.03               184.45    0.037675      -65.113173      -65.075499      -65.080168     -0.03        0.00
        240        120.0             0.02               198.70    0.040587      -65.116273      -65.075686      -65.080234     -0.19        0.00
        241        120.5             0.02               215.11    0.043938      -65.119038      -65.075100      -65.080296     -0.34        0.00
        242        121.0             0.02               227.36    0.046441      -65.120458      -65.074017      -65.080326     -0.42        0.00
        243        121.5             0.03               222.81    0.045510      -65.119958      -65.074448      -65.080300     -0.35        0.00
        244        122.0             0.03               212.26    0.043357      -65.117874      -65.074518      -65.080227     -0.17        0.00
        245        122.5             0.02               198.54    0.040554      -65.115324      -65.074770      -65.080141      0.04        0.00
        246        123.0             0.03               183.27    0.037435      -65.113624      -65.076189      -65.080084      0.18        0.00
        247        123.5             0.03               181.26    0.037024      -65.113683      -65.076659      -65.080081      0.18        0.00
        248        124.0             0.03               187.04    0.038205      -65.115574      -65.077369      -65.080129      0.07        0.00
        249        124.5             0.02               201.61    0.041181      -65.118585      -65.077405      -65.080204     -0.12        0.00
        250        125.0             0.02               214.31    0.043776      -65.121603      -65.077828      -65.080279     -0.30        0.00
        251        125.5             0.03               224.81    0.045920      -65.123485      -65.077565      -65.080327     -0.42        0.00
        252        126.0             0.03               231.06    0.047197      -65.123551      -65.076354      -65.080324     -0.41        0.00
        253        126.5             0.02               217.81    0.044489      -65.121815      -65.077326      -65.080268     -0.27        0.00
        254        127.0             0.03               206.14    0.042107      -65.119219      -65.077112      -65.080191     -0.08        0.00
        255        127.5             0.03               197.04    0.040248      -65.116961      -65.076713      -65.080148      0.02        0.00
        256        128.0             0.03               188.04    0.038409      -65.115704      -65.077295      -65.080163     -0.02        0.00
        257        128.5             0.02               186.71    0.038138      -65.115308      -65.077170      -65.080201     -0.11        0.00
        258        129.0             0.03               181.61    0.037095      -65.115234      -65.078139      -65.080218     -0.15        0.00
        259        129.5             0.03               183.45    0.037472      -65.115196      -65.077724      -65.080211     -0.13        0.00
        260        130.0             0.02               183.49    0.037480      -65.115224      -65.077745      -65.080204     -0.12        0.00
        261        130.5             0.03               183.49    0.037479      -65.115336      -65.077857      -65.080210     -0.13        0.00
        262        131.0             0.03               184.79    0.037744      -65.115404      -65.077660      -65.080222     -0.16        0.00
        263        131.5             0.03               185.56    0.037902      -65.115229      -65.077327      -65.080225     -0.17        0.00
        264        132.0             0.03               180.86    0.036943      -65.114730      -65.077787      -65.080215     -0.14        0.00
        265        132.5             0.03               178.54    0.036468      -65.114063      -65.077596      -65.080198     -0.10        0.00
        266        133.0             0.03               176.47    0.036046      -65.113511      -65.077465      -65.080181     -0.06        0.00
        267        133.5             0.03               178.85    0.036532      -65.113332      -65.076800      -65.080175     -0.05        0.00
        268        134.0             0.03               180.89    0.036949      -65.113619      -65.076670      -65.080187     -0.07        0.00
        269        134.5             0.03               185.13    0.037815      -65.114212      -65.076397      -65.080213     -0.14        0.00
        270        135.0             0.03               184.34    0.037653      -65.114751      -65.077098      -65.080238     -0.20        0.00
        271        135.5             0.03               188.67    0.038539      -65.114959      -65.076420      -65.080236     -0.20        0.00
        272        136.0             0.04               190.28    0.038866      -65.114930      -65.076064      -65.080207     -0.12        0.00
        273        136.5             0.03               189.57    0.038722      -65.115096      -65.076374      -65.080179     -0.06        0.00
        274        137.0             0.03               192.51    0.039322      -65.115849      -65.076527      -65.080192     -0.09        0.00
        275        137.5             0.03               200.45    0.040943      -65.116984      -65.076041      -65.080247     -0.22        0.00
        276        138.0             0.03               208.01    0.042488      -65.117664      -65.075175      -65.080299     -0.35        0.00
        277        138.5             0.02               207.37    0.042358      -65.117019      -65.074661      -65.080303     -0.36        0.00
        278        139.0             0.03               197.43    0.040326      -65.114866      -65.074540      -65.080254     -0.24        0.00
        279        139.5             0.02               180.53    0.036876      -65.111863      -65.074987      -65.080185     -0.07        0.00
        280        140.0             0.02               166.26    0.033959      -65.109040      -65.075081      -65.080135      0.05        0.00
        281        140.5             0.02               160.28    0.032738      -65.107155      -65.074417      -65.080115      0.10        0.00
        282        141.0             0.03               156.66    0.031998      -65.106490      -65.074492      -65.080112      0.11        0.00
        283        141.5             0.03               162.47    0.033185      -65.107064      -65.073879      -65.080120      0.09        0.00
        284        142.0             0.02               174.02    0.035546      -65.108718      -65.073171      -65.080143      0.03        0.00
        285        142.5             0.02               189.02    0.038609      -65.111019      -65.072410      -65.080188     -0.08        0.00
        286        143.0             0.02               199.42    0.040733      -65.113198      -65.072464      -65.080251     -0.23        0.00
        287        143.5             0.03               206.30    0.042138      -65.114280      -65.072142      -65.080303     -0.36        0.00
        288        144.0             0.02               200.48    0.040949      -65.113540      -65.072591      -65.080311     -0.38        0.00
        289        144.5             0.02               189.64    0.038736      -65.110997      -65.072261      -65.080252     -0.23        0.00
        290        145.0             0.02               174.18    0.035578      -65.107663      -65.072085      -65.080143      0.03        0.00
        291        145.5             0.03               168.81    0.034480      -65.105270      -65.070790      -65.080046      0.27        0.00
        292        146.0             0.03               171.87    0.035107      -65.105271      -65.070165      -65.080028      0.31        0.00
        293        146.5             0.02               181.37    0.037046      -65.107938      -65.070892      -65.080106      0.12        0.00
        294        147.0             0.02               204.53    0.041776      -65.112058      -65.070282      -65.080229     -0.18        0.00
        295        147.5             0.02               225.68    0.046097      -65.115777      -65.069679      -65.080331     -0.43        0.00
        296        148.0             0.02               237.46    0.048504      -65.117387      -65.068884      -65.080364     -0.51        0.00
        297        148.5             0.02               234.57    0.047913      -65.116219      -65.068306      -65.080315     -0.39        0.00
        298        149.0             0.02               217.19    0.044363      -65.112856      -65.068493      -65.080212     -0.14        0.00
        299        149.5             0.02               196.22    0.040081      -65.108808      -65.068727      -65.080109      0.12        0.00
        300        150.0             0.02               181.28    0.037029      -65.105629      -65.068600      -65.080053      0.25        0.00
        301        150.5             0.02               176.44    0.036039      -65.104174      -65.068135      -65.080050      0.26        0.00
        302        151.0             0.02               175.93    0.035936      -65.104466      -65.068530      -65.080080      0.19        0.00
        303        151.5             0.02               180.72    0.036914      -65.106027      -65.069113      -65.080120      0.09        0.00
        304        152.0             0.02               192.31    0.039281      -65.108200      -65.068919      -65.080166     -0.02        0.00
        305        152.5             0.02               203.21    0.041508      -65.110263      -65.068754      -65.080215     -0.14        0.00
        306        153.0             0.03               210.18    0.042931      -65.111460      -65.068529      -65.080252     -0.23        0.00
        307        153.5             0.02               208.31    0.042549      -65.111273      -65.068724      -65.080255     -0.24        0.00
        308        154.0             0.02               197.44    0.040329      -65.109754      -65.069425      -65.080214     -0.14        0.00
        309        154.5             0.02               189.81    0.038770      -65.107696      -65.068926      -65.080148      0.02        0.00
        310        155.0             0.02               180.69    0.036908      -65.106174      -65.069267      -65.080101      0.14        0.00
        311        155.5             0.02               179.04    0.036571      -65.105987      -65.069415      -65.080103      0.13        0.00
        312        156.0             0.02               182.04    0.037182      -65.107185      -65.070002      -65.080143      0.03        0.00
        313        156.5             0.02               192.35    0.039289      -65.109187      -65.069898      -65.080194     -0.09        0.00
        314        157.0             0.02               202.22    0.041305      -65.111201      -65.069896      -65.080238     -0.20        0.00
        315        157.5             0.02               212.12    0.043328      -65.112475      -65.069148      -65.080264     -0.26        0.00
        316        158.0             0.02               218.38    0.044607      -65.112527      -65.067920      -65.080259     -0.25        0.00
        317        158.5             0.02               216.55    0.044232      -65.111298      -65.067066      -65.080212     -0.14        0.00
        318        159.0             0.02               210.33    0.042962      -65.109392      -65.066430      -65.080134      0.06        0.00
        319        159.5             0.02               208.07    0.042499      -65.107906      -65.065406      -65.080067      0.22        0.00
        320        160.0             0.02               206.85    0.042250      -65.107768      -65.065518      -65.080048      0.26        0.00
        321        160.5             0.03               212.99    0.043506      -65.109205      -65.065699      -65.080082      0.18        0.00
        322        161.0             0.02               229.95    0.046969      -65.111671      -65.064702      -65.080143      0.03        0.00
        323        161.5             0.02               234.06    0.047809      -65.114188      -65.066379      -65.080207     -0.12        0.00
        324        162.0             0.03               242.67    0.049567      -65.115697      -65.066130      -65.080254     -0.24        0.00
        325        162.5             0.03               241.72    0.049373      -65.115561      -65.066188      -65.080267     -0.27        0.00
        326        163.0             0.03               233.45    0.047683      -65.113622      -65.065939      -65.080231     -0.18        0.00
        327        163.5             0.02               219.74    0.044885      -65.110518      -65.065633      -65.080150      0.02        0.00
        328        164.0             0.02               202.30    0.041322      -65.107555      -65.066233      -65.080064      0.23        0.00
        329        164.5             0.02               198.43    0.040530      -65.106145      -65.065614      -65.080027      0.32        0.00
        330        165.0             0.03               207.84    0.042453      -65.106871      -65.064418      -65.080065      0.23        0.00
        331        165.5             0.02               217.51    0.044429      -65.109182      -65.064753      -65.080148      0.02        0.00
        332        166.0             0.02               232.31    0.047452      -65.111747      -65.064295      -65.080233     -0.19        0.00
        333        166.5             0.02               242.40    0.049512      -65.113232      -65.063720      -65.080290     -0.33        5.64
        334        167.0             0.03               244.52    0.049944      -65.112671      -65.062726      -65.080298     -0.35       12.24
        335        167.5             0.02               226.31    0.046225      -65.109819      -65.063593      -65.080248     -0.22       18.70
        336        168.0             0.02               202.98    0.041461      -65.105494      -65.064033      -65.080149      0.02       24.44
        337        168.5             0.02               186.53    0.038100      -65.101281      -65.063181      -65.080035      0.30       29.10
        338        169.0             0.02               179.24    0.036611      -65.098864      -65.062253      -65.079955      0.49       32.49
        339        169.5             0.02               181.80    0.037134      -65.099435      -65.062301      -65.079950      0.50       34.47
        340        170.0             0.02               196.93    0.040224      -65.103018      -65.062793      -65.080027      0.32       34.97
        341        170.5             0.02               222.02    0.045350      -65.108393      -65.063043      -65.080146      0.03       34.12
        342        171.0             0.02               250.16    0.051098      -65.113730      -65.062632      -65.080254     -0.24       32.15
        343        171.5             0.02               263.40    0.053803      -65.117337      -65.063534      -65.080314     -0.38       29.38
        344        172.0             0.02               262.93    0.053705      -65.118245      -65.064540      -65.080307     -0.37       26.25
        345        172.5             0.02               252.19    0.051513      -65.116672      -65.065159      -65.080239     -0.20       23.22
        346        173.0             0.02               237.50    0.048511      -65.113784      -65.065273      -65.080143      0.03       20.72
        347        173.5             0.02               228.53    0.046679      -65.111137      -65.064459      -65.080066      0.22       19.07
        348        174.0             0.03               227.44    0.046457      -65.109931      -65.063473      -65.080044      0.28       18.49
        349        174.5             0.02               225.25    0.046009      -65.110542      -65.064533      -65.080071      0.21       19.04
        350        175.0             0.02               236.07    0.048221      -65.112592      -65.064371      -65.080119      0.09       20.58
        351        175.5             0.02               251.71    0.051414      -65.115330      -65.063917      -65.080178     -0.05       22.84
        352        176.0             0.02               260.23    0.053155      -65.117761      -65.064606      -65.080239     -0.20       25.44
        353        176.5             0.02               261.89    0.053494      -65.118857      -65.065363      -65.080286     -0.32       27.91
        354        177.0             0.02               259.19    0.052943      -65.117913      -65.064970      -65.080299     -0.35       29.83
        355        177.5             0.02               255.03    0.052093      -65.114735      -65.062642      -65.080263     -0.26       30.84
        356        178.0             0.02               231.98    0.047383      -65.109719      -65.062335      -65.080176     -0.05       30.68
        357        178.5             0.03               203.63    0.041593      -65.104220      -65.062628      -65.080063      0.23       29.17
        358        179.0             0.02               181.15    0.037001      -65.100038      -65.063037      -65.079975      0.44       26.30
        359        179.5             0.02               170.23    0.034771      -65.098541      -65.063771      -65.079963      0.47       22.17
        360        180.0             0.02               185.80    0.037951      -65.099933      -65.061982      -65.080035      0.30       17.02
        361        180.5             0.02               202.32    0.041325      -65.103142      -65.061817      -65.080152      0.01       10.99
        362        181.0             0.03               217.66    0.044459      -65.106292      -65.061833      -65.080246     -0.22        4.65
        363        181.5             0.02               226.42    0.046249      -65.107924      -65.061675      -65.080275     -0.29        0.00
        364        182.0             0.02               221.01    0.045143      -65.107585      -65.062441      -65.080235     -0.19        0.00
        365        182.5             0.02               211.83    0.043268      -65.105919      -65.062651      -65.080163     -0.02        0.00
        366        183.0             0.02               207.42    0.042367      -65.104096      -65.061729      -65.080104      0.13        0.00
        367        183.5             0.02               202.23    0.041308      -65.103018      -65.061710      -65.080080      0.19        0.00
        368        184.0             0.03               200.56    0.040966      -65.103080      -65.062114      -65.080082      0.18        0.00
        369        184.5             0.03               203.77    0.041621      -65.104257      -65.062635      -65.080100      0.14        0.00
        370        185.0             0.02               210.71    0.043039      -65.106253      -65.063214      -65.080132      0.06        0.00
        371        185.5             0.03               224.65    0.045887      -65.108536      -65.062649      -65.080174     -0.04        0.00
        372        186.0             0.02               234.72    0.047944      -65.110418      -65.062474      -65.080209     -0.13        0.00
        373        186.5             0.03               235.00    0.048001      -65.111278      -65.063277      -65.080216     -0.15        0.93
        374        187.0             0.02               233.18    0.047629      -65.110996      -65.063367      -65.080191     -0.08        3.58
        375        187.5             0.03               228.27    0.046626      -65.109984      -65.063357      -65.080144      0.03        5.30
        376        188.0             0.02               225.58    0.046076      -65.108968      -65.062891      -65.080098      0.14        5.95
        377        188.5             0.03               220.08    0.044953      -65.108650      -65.063697      -65.080082      0.18        5.51
        378        189.0             0.02               222.88    0.045525      -65.109308      -65.063782      -65.080117      0.10        4.10
        379        189.5             0.03               228.06    0.046583      -65.110471      -65.063888      -65.080190     -0.08        1.90
        380        190.0             0.02               228.26    0.046625      -65.111103      -65.064478      -65.080252     -0.23        0.00
        381        190.5             0.02               225.97    0.046156      -65.110362      -65.064206      -65.080257     -0.25        0.00
        382        191.0             0.02               220.26    0.044991      -65.108226      -65.063235      -65.080203     -0.11        0.00
        383        191.5             0.02               203.29    0.041523      -65.105481      -65.063957      -65.080128      0.07        0.00
        384        192.0             0.02               193.39    0.039501      -65.103333      -65.063832      -65.080086      0.17        0.00
        385        192.5             0.02               188.92    0.038589      -65.102461      -65.063872      -65.080099      0.14        0.00
        386        193.0             0.02               184.59    0.037704      -65.102719      -65.065015      -65.080140      0.04        0.00
        387        193.5             0.02               184.46    0.037677      -65.103550      -65.065873      -65.080167     -0.03        0.00
        388        194.0             0.03               191.65    0.039145      -65.104556      -65.065410      -65.080175     -0.05        0.00
        389        194.5             0.03               192.80    0.039382      -65.105536      -65.066154      -65.080184     -0.07        0.00
        390        195.0             0.02               199.65    0.040780      -65.106248      -65.065468      -65.080205     -0.12        0.01
        391        195.5             0.03               198.99    0.040645      -65.106318      -65.065674      -65.080224     -0.16        1.48
        392        196.0             0.02               194.55    0.039738      -65.105409      -65.065672      -65.080215     -0.14        1.96
        393        196.5             0.02               183.10    0.037399      -65.103648      -65.066249      -65.080171     -0.04        1.22
        394        197.0             0.02               175.93    0.035935      -65.101741      -65.065805      -65.080107      0.12        0.00
        395        197.5             0.02               169.74    0.034672      -65.100658      -65.065987      -65.080050      0.26        0.00
        396        198.0             0.03               172.03    0.035138      -65.101279      -65.066141      -65.080031      0.31        0.00
        397        198.5             0.02               186.27    0.038047      -65.103890      -65.065843      -65.080073      0.20        0.00
        398        199.0             0.02               206.64    0.042209      -65.107873      -65.065664      -65.080165     -0.02        0.00
        399        199.5             0.02               223.63    0.045679      -65.111832      -65.066154      -65.080263     -0.26        0.00
        400        200.0             0.02               238.62    0.048740      -65.114310      -65.065570      -65.080314     -0.39        0.00
        401        200.5             0.02               240.67    0.049160      -65.114559      -65.065399      -65.080305     -0.36        0.00
        402        201.0             0.02               238.39    0.048694      -65.112718      -65.064025      -65.080252     -0.23        0.00
        403        201.5             0.02               221.17    0.045177      -65.109550      -65.064373      -65.080188     -0.08        0.00
        404        202.0             0.02               199.50    0.040749      -65.106114      -65.065365      -65.080134      0.05        0.00
        405        202.5             0.02               186.07    0.038007      -65.103379      -65.065372      -65.080096      0.15        0.00
        406        203.0             0.02               178.45    0.036449      -65.101973      -65.065523      -65.080072      0.21        0.00
        407        203.5             0.02               176.78    0.036109      -65.102240      -65.066131      -65.080075      0.20        0.00
        408        204.0             0.02               184.51    0.037688      -65.104089      -65.066401      -65.080116      0.10        0.00
        409        204.5             0.02               191.09    0.039032      -65.106837      -65.067805      -65.080187     -0.07        0.00
        410        205.0             0.02               204.13    0.041695      -65.109360      -65.067665      -65.080255     -0.24        0.00
        411        205.5             0.02               210.38    0.042972      -65.110652      -65.067680      -65.080291     -0.33        0.00
        412        206.0             0.02               205.60    0.041995      -65.110094      -65.068100      -65.080279     -0.30        0.00
        413        206.5             0.02               194.70    0.039769      -65.107862      -65.068093      -65.080225     -0.17        0.00
        414        207.0             0.02               185.10    0.037809      -65.104804      -65.066996      -65.080148      0.02        0.00
        415        207.5             0.02               169.88    0.034700      -65.102044      -65.067344      -65.080079      0.19        0.00
        416        208.0             0.02               161.43    0.032974      -65.100689      -65.067714      -65.080054      0.25        0.00
        417        208.5             0.02               162.42    0.033175      -65.101191      -65.068016      -65.080081      0.19        0.00
        418        209.0             0.03               172.42    0.035219      -65.103211      -65.067992      -65.080135      0.05        0.00
        419        209.5             0.02               186.73    0.038142      -65.105982      -65.067841      -65.080180     -0.06        0.00
        420        210.0             0.02               203.49    0.041565      -65.108822      -65.067257      -65.080203     -0.11        0.00
        421        210.5             0.02               219.08    0.044750      -65.111325      -65.066575      -65.080222     -0.16        0.00
        422        211.0             0.02               230.16    0.047013      -65.113114      -65.066100      -65.080254     -0.24        0.00
        423        211.5             0.02               227.55    0.046478      -65.113637      -65.067159      -65.080289     -0.33        0.00
        424        212.0             0.02               227.42    0.046452      -65.112436      -65.065984      -65.080289     -0.32        0.00
        425        212.5             0.02               215.59    0.044037      -65.109524      -65.065487      -65.080231     -0.18        0.00
        426        213.0             0.02               200.26    0.040905      -65.105732      -65.064826      -65.080137      0.05        0.00
        427        213.5             0.03               186.47    0.038088      -65.102433      -65.064346      -65.080056      0.25        0.00
        428        214.0             0.02               181.26    0.037024      -65.100823      -65.063799      -65.080028      0.32        0.00
        429        214.5             0.03               184.01    0.037586      -65.101303      -65.063717      -65.080058      0.24        0.00
        430        215.0             0.03               193.87    0.039599      -65.103379      -65.063780      -65.080126      0.07        0.00
        431        215.5             0.03               202.73    0.041409      -65.105971      -65.064562      -65.080200     -0.11        0.00
        432        216.0             0.02               215.08    0.043932      -65.107940      -65.064009      -65.080246     -0.22        0.00
        433        216.5             0.02               220.96    0.045133      -65.108598      -65.063465      -65.080248     -0.22        0.00
        434        217.0             0.02               221.94    0.045334      -65.107850      -65.062516      -65.080211     -0.13        0.00
        435        217.5             0.02               210.23    0.042941      -65.106184      -65.063244      -65.080163     -0.02        0.00
        436        218.0             0.02               203.47    0.041560      -65.104385      -65.062825      -65.080131      0.06        0.00
        437        218.5             0.02               197.77    0.040397      -65.103015      -65.062618      -65.080112      0.11        0.00
        438        219.0             0.03               197.09    0.040257      -65.102425      -65.062169      -65.080094      0.15        0.00
        439        219.5             0.02               198.18    0.040481      -65.102902      -65.062421      -65.080082      0.18        0.00
        440        220.0             0.03               208.67    0.042623      -65.104586      -65.061964      -65.080100      0.14        0.00
        441        220.5             0.03               224.00    0.045754      -65.107154      -65.061400      -65.080158     -0.00        0.00
        442        221.0             0.02               238.11    0.048637      -65.109673      -65.061036      -65.080222     -0.16        0.00
        443        221.5             0.02               248.85    0.050829      -65.111109      -65.060280      -65.080243     -0.21        0.00
        444        222.0             0.03               249.03    0.050866      -65.111059      -65.060193      -65.080204     -0.12        0.00
        445        222.5             0.03               249.37    0.050936      -65.110018      -65.059082      -65.080137      0.05        0.00
        446        223.0             0.02               247.66    0.050586      -65.108889      -65.058303      -65.080092      0.16        0.00
        447        223.5             0.02               246.60    0.050370      -65.108290      -65.057920      -65.080090      0.16        0.00
        448        224.0             0.03               246.66    0.050382      -65.108242      -65.057860      -65.080117      0.10        0.00
        449        224.5             0.02               244.11    0.049861      -65.108352      -65.058491      -65.080145      0.03        0.00
        450        225.0             0.03               247.07    0.050466      -65.108217      -65.057751      -65.080158     -0.00        0.00
        451        225.5             0.02               240.60    0.049144      -65.107631      -65.058487      -65.080153      0.01        0.00
        452        226.0             0.02               238.90    0.048798      -65.106697      -65.057900      -65.080135      0.05        0.00
        453        226.5             0.02               231.69    0.047326      -65.105713      -65.058387      -65.080115      0.10        0.00
        454        227.0             0.02               229.50    0.046877      -65.105044      -65.058167      -65.080102      0.13        0.00
        455        227.5             0.02               225.46    0.046052      -65.104948      -65.058896      -65.080103      0.13        0.00
        456        228.0             0.02               230.15    0.047010      -65.105488      -65.058478      -65.080110      0.11        0.00
        457        228.5             0.03               232.55    0.047501      -65.106598      -65.059096      -65.080118      0.10        0.00
        458        229.0             0.02               237.64    0.048540      -65.108139      -65.059600      -65.080132      0.06        0.00
        459        229.5             0.03               248.92    0.050845      -65.109873      -65.059029      -65.080169     -0.03        0.00
        460        230.0             0.02               247.42    0.050537      -65.111194      -65.060657      -65.080221     -0.16        0.00
        461        230.5             0.03               248.62    0.050783      -65.111305      -65.060523      -65.080249     -0.23        0.00
        462        231.0             0.02               244.40    0.049920      -65.109841      -65.059921      -65.080218     -0.15        0.00
        463        231.5             0.03               233.10    0.047614      -65.107204      -65.059590      -65.080135      0.05        0.00
        464        232.0             0.03               223.88    0.045729      -65.104607      -65.058878      -65.080045      0.27        0.00
        465        232.5             0.03               219.52    0.044839      -65.103358      -65.058519      -65.079998      0.39        0.00
        466        233.0             0.02               224.21    0.045798      -65.104159      -65.058361      -65.080011      0.36        5.36
        467        233.5             0.02               236.99    0.048407      -65.106813      -65.058406      -65.080067      0.22       11.24
        468        234.0             0.03               257.88    0.052675      -65.110420      -65.057745      -65.080145      0.03       16.05
        469        234.5             0.02               270.95    0.055344      -65.113753      -65.058410      -65.080222     -0.16       19.76
        470        235.0             0.02               281.72    0.057545      -65.115556      -65.058012      -65.080277     -0.30       22.36
        471        235.5             0.03               278.21    0.056828      -65.115018      -65.058190      -65.080288     -0.32       23.99
        472        236.0             0.02               256.84    0.052461      -65.112034      -65.059573      -65.080238     -0.20       24.87
        473        236.5             0.02               231.59    0.047305      -65.107566      -65.060261      -65.080143      0.03       25.27
        474        237.0             0.02               209.26    0.042744      -65.103236      -65.060492      -65.080044      0.28       25.53
        475        237.5             0.03               201.87    0.041235      -65.100669      -65.059435      -65.079984      0.42       25.97
        476        238.0             0.02               201.57    0.041173      -65.100808      -65.059636      -65.079987      0.42       26.88
        477        238.5             0.02               219.25    0.044783      -65.103620      -65.058837      -65.080055      0.25       28.42
        478        239.0             0.03               237.11    0.048432      -65.108028      -65.059595      -65.080173     -0.04       30.69
        479        239.5             0.02               253.72    0.051824      -65.112089      -65.060265      -65.080293     -0.33       33.58
        480        240.0             0.02               261.03    0.053317      -65.113974      -65.060657      -65.080354     -0.48       36.90
        481        240.5             0.02               255.63    0.052215      -65.112738      -65.060523      -65.080324     -0.41       40.38
        482        241.0             0.02               239.58    0.048936      -65.108781      -65.059845      -65.080221     -0.16       43.70
        483        241.5             0.02               216.13    0.044147      -65.103578      -65.059431      -65.080098      0.14       46.56
        484        242.0             0.02               198.20    0.040485      -65.098984      -65.058499      -65.080006      0.37       48.66
        485        242.5             0.02               184.94    0.037775      -65.096372      -65.058597      -65.079967      0.46       49.78
        486        243.0             0.02               184.92    0.037771      -65.096392      -65.058621      -65.079977      0.44       49.77
        487        243.5             0.02               195.57    0.039947      -65.098873      -65.058926      -65.080030      0.31       48.61
        488        244.0             0.02               211.58    0.043218      -65.102946      -65.059728      -65.080118      0.09       46.34
        489        244.5             0.02               229.81    0.046941      -65.107232      -65.060291      -65.080217     -0.15       43.17
        490        245.0             0.02               244.58    0.049958      -65.110267      -65.060309      -65.080290     -0.33       39.33
        491        245.5             0.02               249.02    0.050864      -65.110995      -65.060132      -65.080304     -0.36       35.14
        492        246.0             0.02               242.27    0.049486      -65.109242      -65.059756      -65.080251     -0.23       30.97
        493        246.5             0.03               224.87    0.045931      -65.105871      -65.059939      -65.080157     -0.00       27.24
        494        247.0             0.02               202.86    0.041437      -65.102414      -65.060977      -65.080069      0.21       24.32
        495        247.5             0.02               192.06    0.039230      -65.100386      -65.061156      -65.080021      0.33       22.55
        496        248.0             0.02               193.50    0.039523      -65.100590      -65.061067      -65.080030      0.31       22.05
        497        248.5             0.02               206.73    0.042227      -65.102892      -65.060665      -65.080098      0.14       22.85
        498        249.0             0.02               219.74    0.044883      -65.106237      -65.061353      -65.080192     -0.09       24.83
        499        249.5             0.02               233.46    0.047685      -65.109116      -65.061431      -65.080262     -0.26       27.73
        500        250.0             0.02               241.08    0.049243      -65.110458      -65.061215      -65.080275     -0.29       31.24
        501        250.5             0.03               246.84    0.050419      -65.110002      -65.059583      -65.080233     -0.19       35.02
        502        251.0             0.02               240.62    0.049149      -65.108208      -65.059059      -65.080175     -0.04       38.78
        503        251.5             0.02               229.06    0.046788      -65.105869      -65.059081      -65.080128      0.07       42.18
        504        252.0             0.02               222.66    0.045481      -65.103696      -65.058215      -65.080099      0.14       44.99
        505        252.5             0.02               216.88    0.044299      -65.102111      -65.057812      -65.080076      0.20       47.10
        506        253.0             0.02               216.26    0.044172      -65.101408      -65.057235      -65.080065      0.22       48.45
        507        253.5             0.02               215.49    0.044016      -65.101682      -65.057667      -65.080081      0.18       49.10
        508        254.0             0.03               213.03    0.043514      -65.102649      -65.059136      -65.080129      0.07       49.18
        509        254.5             0.02               221.53    0.045249      -65.103650      -65.058401      -65.080183     -0.07       48.92
        510        255.0             0.02               227.58    0.046486      -65.103943      -65.057457      -65.080209     -0.13       48.58
        511        255.5             0.02               225.21    0.046000      -65.103135      -65.057135      -65.080181     -0.06       48.44
        512        256.0             0.02               221.12    0.045165      -65.101670      -65.056504      -65.080115      0.10       48.80
        513        256.5             0.03               214.07    0.043726      -65.100559      -65.056833      -65.080059      0.24       49.87
        514        257.0             0.02               212.68    0.043441      -65.100684      -65.057243      -65.080058      0.24       51.76
        515        257.5             0.02               222.55    0.045458      -65.102116      -65.056658      -65.080118      0.10       54.45
        516        258.0             0.02               234.14    0.047826      -65.103975      -65.056149      -65.080202     -0.11       57.84
        517        258.5             0.02               243.08    0.049652      -65.104935      -65.055284      -65.080250     -0.23       61.69
        518        259.0             0.03               247.27    0.050507      -65.104195      -65.053687      -65.080220     -0.15       65.70
        519        259.5             0.02               234.53    0.047904      -65.102036      -65.054132      -65.080124      0.08       69.53
        520        260.0             0.02               225.18    0.045995      -65.099845      -65.053850      -65.080025      0.32       72.79
        521        260.5             0.02               226.44    0.046252      -65.099084      -65.052832      -65.079986      0.42       75.19
        522        261.0             0.02               234.21    0.047840      -65.100324      -65.052485      -65.080020      0.33       76.55
        523        261.5             0.02               243.40    0.049716      -65.103034      -65.053317      -65.080086      0.17       76.73
        524        262.0             0.02               261.19    0.053351      -65.106179      -65.052827      -65.080136      0.05       75.68
        525        262.5             0.02               279.44    0.057078      -65.108976      -65.051898      -65.080158     -0.00       73.46
        526        263.0             0.02               289.78    0.059190      -65.110948      -65.051757      -65.080172     -0.04       70.20
        527        263.5             0.02               295.65    0.060389      -65.111761      -65.051373      -65.080195     -0.09       66.17
        528        264.0             0.02               297.66    0.060800      -65.111058      -65.050259      -65.080215     -0.14       61.66
        529        264.5             0.02               289.64    0.059161      -65.108556      -65.049395      -65.080198     -0.10       56.99
        530        265.0             0.02               272.47    0.055655      -65.104582      -65.048927      -65.080118      0.09       52.53
        531        265.5             0.03               253.00    0.051678      -65.100432      -65.048754      -65.080001      0.38       48.64
        532        266.0             0.02               239.16    0.048852      -65.097947      -65.049096      -65.079918      0.58       45.59
        533        266.5             0.02               240.43    0.049110      -65.098411      -65.049301      -65.079939      0.53       43.51
        534        267.0             0.02               251.07    0.051284      -65.101500      -65.050216      -65.080065      0.22       42.42
        535        267.5             0.03               273.53    0.055872      -65.105292      -65.049421      -65.080219     -0.15       42.17
        536        268.0             0.03               285.33    0.058281      -65.107436      -65.049156      -65.080310     -0.37       42.55
        537        268.5             0.02               279.45    0.057080      -65.106398      -65.049318      -65.080290     -0.33       43.27
        538        269.0             0.02               258.41    0.052783      -65.102397      -65.049614      -65.080181     -0.06       44.03
        539        269.5             0.03               235.75    0.048153      -65.097086      -65.048933      -65.080048      0.27       44.57
        540        270.0             0.02               214.25    0.043763      -65.092445      -65.048682      -65.079956      0.49       44.66
        541        270.5             0.02               203.54    0.041574      -65.089907      -65.048333      -65.079933      0.55       44.18
        542        271.0             0.02               199.02    0.040652      -65.089866      -65.049214      -65.079957      0.49       43.07
        543        271.5             0.02               212.06    0.043315      -65.091984      -65.048669      -65.079998      0.39       41.39
        544        272.0             0.02               230.34    0.047049      -65.095648      -65.048599      -65.080043      0.28       39.24
        545        272.5             0.02               252.26    0.051527      -65.100048      -65.048520      -65.080099      0.14       36.83
        546        273.0             0.02               272.57    0.055676      -65.104277      -65.048601      -65.080162     -0.01       34.43
        547        273.5             0.03               288.95    0.059020      -65.107355      -65.048335      -65.080216     -0.14       32.37
        548        274.0             0.02               295.33    0.060325      -65.108510      -65.048185      -65.080231     -0.18       30.97
        549        274.5             0.03               289.49    0.059130      -65.107564      -65.048434      -65.080189     -0.08       30.54
        550        275.0             0.02               281.89    0.057579      -65.105263      -65.047685      -65.080096      0.15       31.28
        551        275.5             0.02               276.64    0.056506      -65.103061      -65.046554      -65.079996      0.39       33.32
        552        276.0             0.02               280.96    0.057388      -65.102415      -65.045027      -65.079962      0.48       36.63
        553        276.5             0.03               285.31    0.058277      -65.103763      -65.045487      -65.080030      0.31       41.05
        554        277.0             0.02               292.72    0.059791      -65.106023      -65.046232      -65.080148      0.02       46.23
        555        277.5             0.04               300.48    0.061375      -65.107424      -65.046049      -65.080223     -0.16       51.78
        556        278.0             0.04               301.29    0.061542      -65.106791      -65.045249      -65.080206     -0.12       57.39
        557        278.5             0.03               292.47    0.059741      -65.104236      -65.044496      -65.080118      0.09       62.70
        558        279.0             0.03               275.83    0.056342      -65.100950      -65.044608      -65.080024      0.32       67.41
        559        279.5             0.02               272.51    0.055662      -65.098299      -65.042637      -65.079987      0.42       71.23
        560        280.0             0.02               264.29    0.053984      -65.096772      -65.042788      -65.080013      0.35       74.08
        561        280.5             0.03               258.47    0.052795      -65.096001      -65.043206      -65.080064      0.23       75.85
        562        281.0             0.02               256.34    0.052360      -65.095287      -65.042927      -65.080093      0.15       76.56
        563        281.5             0.02               255.03    0.052093      -65.094200      -65.042108      -65.080085      0.18       76.34
        564        282.0             0.02               250.11    0.051087      -65.092850      -65.041763      -65.080047      0.27       75.38
        565        282.5             0.02               241.27    0.049281      -65.091805      -65.042524      -65.080007      0.37       73.95
        566        283.0             0.02               239.66    0.048953      -65.091749      -65.042796      -65.079993      0.40       72.35
        567        283.5             0.02               245.57    0.050161      -65.093005      -65.042844      -65.080014      0.35       70.90
        568        284.0             0.03               258.55    0.052812      -65.095348      -65.042536      -65.080057      0.24       69.84
        569        284.5             0.02               272.56    0.055672      -65.098206      -65.042534      -65.080096      0.15       69.37
        570        285.0             0.02               282.35    0.057673      -65.100998      -65.043325      -65.080119      0.09       69.57
        571        285.5             0.02               299.04    0.061082      -65.103353      -65.042271      -65.080136      0.05       70.38
        572        286.0             0.02               309.29    0.063174      -65.104985      -65.041811      -65.080154      0.01       71.64
        573        286.5             0.02               317.40    0.064833      -65.105493      -65.040660      -65.080168     -0.03       73.11
        574        287.0             0.02               316.07    0.064561      -65.104557      -65.039995      -65.080162     -0.01       74.51
        575        287.5             0.02               300.82    0.061445      -65.102185      -65.040740      -65.080113      0.11       75.52
        576        288.0             0.02               287.67    0.058759      -65.099129      -65.040369      -65.080029      0.31       75.87
        577        288.5             0.02               271.68    0.055493      -65.096599      -65.041106      -65.079959      0.48       75.38
        578        289.0             0.03               263.99    0.053922      -65.095618      -65.041697      -65.079954      0.50       73.94
        579        289.5             0.02               267.36    0.054610      -65.096257      -65.041647      -65.080009      0.36       71.52
        580        290.0             0.02               275.81    0.056338      -65.097665      -65.041328      -65.080081      0.18       68.18
        581        290.5             0.03               285.64    0.058344      -65.098689      -65.040345      -65.080135      0.05       64.07
        582        291.0             0.02               281.55    0.057510      -65.098412      -65.040903      -65.080159     -0.01       59.40
        583        291.5             0.02               270.77    0.055307      -65.096460      -65.041153      -65.080152      0.01       54.54
        584        292.0             0.02               252.03    0.051479      -65.093057      -65.041578      -65.080114      0.11       49.85
        585        292.5             0.02               231.36    0.047257      -65.088961      -65.041704      -65.080051      0.26       45.68
        586        293.0             0.02               215.87    0.044094      -65.085290      -65.041195      -65.079984      0.42       42.38
        587        293.5             0.02               204.27    0.041723      -65.083180      -65.041457      -65.079936      0.54       40.18
        588        294.0             0.02               203.82    0.041632      -65.083481      -65.041849      -65.079932      0.55       42.60
        589        294.5             0.02               221.50    0.045244      -65.086305      -65.041061      -65.079994      0.40       46.29
        590        295.0             0.02               239.69    0.048960      -65.090729      -65.041769      -65.080110      0.11       51.19
        591        295.5             0.02               260.29    0.053166      -65.094951      -65.041785      -65.080209     -0.13       57.08
        592        296.0             0.02               276.52    0.056482      -65.097515      -65.041033      -65.080233     -0.19       63.82
        593        296.5             0.02               276.79    0.056537      -65.097952      -65.041415      -65.080184     -0.07       71.30
        594        297.0             0.03               277.00    0.056579      -65.096907      -65.040328      -65.080100      0.14       79.31
        595        297.5             0.02               272.51    0.055663      -65.095568      -65.039905      -65.080018      0.34       87.88
        596        298.0             0.03               269.26    0.054999      -65.095056      -65.040057      -65.079977      0.44       96.94
        597        298.5             0.02               276.74    0.056526      -65.095907      -65.039380      -65.079995      0.40      106.46
        598        299.0             0.02               286.42    0.058504      -65.097773      -65.039268      -65.080048      0.27      116.52
        599        299.5             0.02               293.95    0.060041      -65.099748      -65.039707      -65.080098      0.14      127.10
        600        300.0             0.02               298.48    0.060967      -65.100992      -65.040025      -65.080126      0.08      138.14
        601        300.5             0.02               297.28    0.060721      -65.101046      -65.040325      -65.080130      0.06      149.61
        602        301.0             0.02               286.24    0.058468      -65.099864      -65.041397      -65.080113      0.11      161.46
        603        301.5             0.03               276.40    0.056457      -65.097834      -65.041376      -65.080076      0.20      173.55
        604        302.0             0.02               264.23    0.053972      -65.095623      -65.041650      -65.080032      0.30      185.87
        605        302.5             0.02               257.35    0.052566      -65.094019      -65.041453      -65.080001      0.38      198.28
        606        303.0             0.02               258.20    0.052740      -65.093595      -65.040855      -65.079999      0.39      210.67
        607        303.5             0.03               266.12    0.054357      -65.094418      -65.040062      -65.080039      0.29      222.85
        608        304.0             0.02               275.07    0.056185      -65.095881      -65.039696      -65.080119      0.09      234.59
        609        304.5             0.02               275.76    0.056326      -65.096744      -65.040418      -65.080207     -0.12      245.55
        610        305.0             0.02               264.67    0.054062      -65.095768      -65.041706      -65.080233     -0.19      255.33
        611        305.5             0.02               249.98    0.051060      -65.092753      -65.041693      -65.080159     -0.01      263.67
        612        306.0             0.02               229.12    0.046800      -65.088890      -65.042090      -65.080022      0.33      270.51
        613        306.5             0.02               217.97    0.044522      -65.086287      -65.041765      -65.079912      0.60      275.78
        614        307.0             0.02               215.45    0.044008      -65.086571      -65.042562      -65.079901      0.63      279.55
        615        307.5             0.02               236.27    0.048260      -65.089885      -65.041625      -65.079985      0.42      281.92
        616        308.0             0.02               260.79    0.053269      -65.094957      -65.041688      -65.080102      0.13      283.10
        617        308.5             0.02               288.97    0.059025      -65.099832      -65.040807      -65.080186     -0.07      283.28
        618        309.0             0.03               298.55    0.060982      -65.103056      -65.042074      -65.080216     -0.15      282.65
        619        309.5             0.03               304.42    0.062181      -65.103977      -65.041796      -65.080204     -0.12      281.41
        620        310.0             0.02               299.17    0.061107      -65.102770      -65.041663      -65.080166     -0.02      279.70
        621        310.5             0.02               285.41    0.058297      -65.100016      -65.041719      -65.080110      0.11      277.64
        622        311.0             0.02               273.28    0.055819      -65.096658      -65.040838      -65.080041      0.28      275.35
        623        311.5             0.02               261.34    0.053382      -65.093797      -65.040415      -65.079974      0.45      272.89
        624        312.0             0.02               252.52    0.051580      -65.092533      -65.040953      -65.079929      0.56      270.33
        625        312.5             0.02               257.10    0.052515      -65.093605      -65.041091      -65.079932      0.55      267.71
        626        313.0             0.02               276.92    0.056563      -65.096979      -65.040416      -65.079999      0.39      265.02
        627        313.5             0.02               292.13    0.059671      -65.101590      -65.041919      -65.080125      0.08      262.21
        628        314.0             0.02               307.38    0.062786      -65.105419      -65.042633      -65.080262     -0.26      259.32
        629        314.5             0.02               315.89    0.064524      -65.106488      -65.041964      -65.080342     -0.45      256.36
        630        315.0             0.02               299.12    0.061098      -65.103610      -65.042511      -65.080317     -0.39      253.38
        631        315.5             0.02               271.73    0.055503      -65.097268      -65.041765      -65.080181     -0.06      250.59
        632        316.0             0.02               232.66    0.047523      -65.089577      -65.042054      -65.079979      0.43      248.19
        633        316.5             0.02               201.74    0.041208      -65.083748      -65.042540      -65.079811      0.84      246.50
        634        317.0             0.02               195.38    0.039909      -65.082375      -65.042467      -65.079780      0.92      245.82
        635        317.5             0.02               213.74    0.043659      -65.085922      -65.042263      -65.079902      0.62      246.41
        636        318.0             0.02               243.37    0.049712      -65.092543      -65.042831      -65.080094      0.15      248.48
        637        318.5             0.03               272.71    0.055703      -65.099217      -65.043514      -65.080253     -0.24      252.16
        638        319.0             0.02               291.39    0.059519      -65.103446      -65.043928      -65.080324     -0.41      257.46
        639        319.5             0.02               294.18    0.060089      -65.104103      -65.044014      -65.080301     -0.35      264.33
        640        320.0             0.02               277.62    0.056706      -65.101488      -65.044781      -65.080215     -0.14      272.67
        641        320.5             0.02               256.65    0.052423      -65.096994      -65.044570      -65.080102      0.13      282.24
        642        321.0             0.03               234.65    0.047930      -65.092399      -65.044470      -65.079998      0.39      292.90
        643        321.5             0.02               218.63    0.044657      -65.089375      -65.044718      -65.079927      0.56      304.37
        644        322.0             0.02               218.71    0.044673      -65.089062      -65.044390      -65.079913      0.60      316.31
        645        322.5             0.02               229.83    0.046945      -65.091656      -65.044711      -65.079975      0.44      328.49
        646        323.0             0.02               250.60    0.051188      -65.096130      -65.044942      -65.080100      0.14      340.51
        647        323.5             0.03               269.40    0.055028      -65.100544      -65.045516      -65.080228     -0.18      352.10
        648        324.0             0.03               275.35    0.056243      -65.102905      -65.046661      -65.080297     -0.34      362.99
        649        324.5             0.02               267.56    0.054651      -65.102193      -65.047542      -65.080284     -0.31      373.00
        650        325.0             0.03               252.61    0.051597      -65.098719      -65.047122      -65.080205     -0.12      382.09
        651        325.5             0.02               226.56    0.046277      -65.093742      -65.047465      -65.080094      0.15      390.38
        652        326.0             0.02               200.93    0.041043      -65.089099      -65.048056      -65.079993      0.40      397.89
        653        326.5             0.02               182.92    0.037363      -65.086462      -65.049099      -65.079950      0.51      404.68
        654        327.0             0.03               185.83    0.037958      -65.086590      -65.048632      -65.079992      0.40      410.81
        655        327.5             0.03               204.86    0.041844      -65.088897      -65.047053      -65.080093      0.15      416.43
        656        328.0             0.02               216.42    0.044205      -65.091821      -65.047616      -65.080186     -0.07      421.63
        657        328.5             0.02               230.43    0.047068      -65.093816      -65.046749      -65.080219     -0.15      426.20
        658        329.0             0.02               231.08    0.047201      -65.094314      -65.047113      -65.080201     -0.11      430.15
        659        329.5             0.03               229.27    0.046831      -65.093493      -65.046662      -65.080164     -0.02      433.30
        660        330.0             0.03               219.98    0.044933      -65.091903      -65.046970      -65.080127      0.07      435.59
        661        330.5             0.02               209.86    0.042867      -65.090182      -65.047316      -65.080081      0.19      436.85
        662        331.0             0.02               205.26    0.041926      -65.089115      -65.047190      -65.080026      0.32      436.97
        663        331.5             0.02               209.47    0.042786      -65.089519      -65.046733      -65.079993      0.40      435.82
        664        332.0             0.02               222.81    0.045510      -65.091786      -65.046275      -65.080022      0.33      433.28
        665        332.5             0.02               242.54    0.049541      -65.095372      -65.045832      -65.080105      0.13      429.28
        666        333.0             0.03               257.53    0.052604      -65.098911      -65.046307      -65.080192     -0.09      423.83
        667        333.5             0.03               266.90    0.054516      -65.100989      -65.046473      -65.080230     -0.18      417.10
        668        334.0             0.03               264.38    0.054003      -65.100994      -65.046991      -65.080206     -0.12      409.30
        669        334.5             0.03               253.06    0.051690      -65.099303      -65.047613      -65.080136      0.05      400.78
        670        335.0             0.03               241.06    0.049239      -65.097042      -65.047803      -65.080059      0.24      391.93
        671        335.5             0.02               232.18    0.047425      -65.095449      -65.048025      -65.080006      0.37      383.12
        672        336.0             0.03               239.01    0.048820      -65.095382      -65.046563      -65.079997      0.39      374.73
        673        336.5             0.02               252.16    0.051507      -65.096995      -65.045488      -65.080030      0.31      366.94
        674        337.0             0.02               262.19    0.053554      -65.099737      -65.046183      -65.080092      0.16      360.01
        675        337.5             0.02               282.97    0.057800      -65.102607      -65.044807      -65.080169     -0.03      354.21
        676        338.0             0.02               287.89    0.058805      -65.104477      -65.045672      -65.080234     -0.19      349.51
        677        338.5             0.03               289.81    0.059197      -65.104343      -65.045146      -65.080255     -0.24      351.88
        678        339.0             0.02               273.68    0.055901      -65.101974      -65.046073      -65.080217     -0.15      354.58
        679        339.5             0.02               258.49    0.052800      -65.098079      -65.045280      -65.080135      0.05      357.15
        680        340.0             0.02               239.36    0.048892      -65.093957      -65.045065      -65.080037      0.29      359.42
        681        340.5             0.02               227.76    0.046522      -65.091163      -65.044641      -65.079963      0.47      361.22
        682        341.0             0.02               227.16    0.046399      -65.090803      -65.044404      -65.079961      0.48      362.52
        683        341.5             0.03               239.69    0.048960      -65.092860      -65.043900      -65.080039      0.29      363.36
        684        342.0             0.02               258.45    0.052790      -65.096098      -65.043308      -65.080146      0.03      363.85
        685        342.5             0.02               267.80    0.054701      -65.098779      -65.044078      -65.080216     -0.15      364.22
        686        343.0             0.02               268.51    0.054845      -65.099696      -65.044852      -65.080221     -0.16      364.72
        687        343.5             0.02               266.13    0.054360      -65.098749      -65.044389      -65.080170     -0.03      365.64
        688        344.0             0.02               260.56    0.053222      -65.096655      -65.043433      -65.080093      0.16      367.26
        689        344.5             0.02               250.60    0.051188      -65.094488      -65.043300      -65.080027      0.32      370.18
        690        345.0             0.02               245.78    0.050203      -65.093235      -65.043032      -65.080000      0.38      377.08
        691        345.5             0.02               245.05    0.050054      -65.093316      -65.043262      -65.080021      0.33      384.86
        692        346.0             0.02               250.99    0.051266      -65.094440      -65.043174      -65.080074      0.20      393.36
        693        346.5             0.03               255.77    0.052243      -65.095883      -65.043640      -65.080116      0.10      402.42
        694        347.0             0.02               267.88    0.054717      -65.097065      -65.042348      -65.080118      0.10      411.73
        695        347.5             0.02               268.47    0.054838      -65.097967      -65.043129      -65.080091      0.16      421.16
        696        348.0             0.02               272.65    0.055692      -65.098938      -65.043246      -65.080082      0.18      430.25
        697        348.5             0.03               275.51    0.056275      -65.100170      -65.043895      -65.080109      0.12      438.76
        698        349.0             0.02               276.01    0.056377      -65.101338      -65.044961      -65.080144      0.03      446.41
        699        349.5             0.02               286.83    0.058588      -65.102022      -65.043434      -65.080154      0.01      452.94
        700        350.0             0.02               282.41    0.057685      -65.102067      -65.044382      -65.080138      0.05      458.28
        701        350.5             0.02               286.08    0.058434      -65.101669      -65.043235      -65.080117      0.10      462.15
        702        351.0             0.02               280.93    0.057382      -65.101122      -65.043740      -65.080101      0.14      464.51
        703        351.5             0.02               282.66    0.057736      -65.100660      -65.042924      -65.080085      0.17      465.32
        704        352.0             0.02               284.53    0.058119      -65.100490      -65.042372      -65.080077      0.20      464.66
        705        352.5             0.03               289.05    0.059042      -65.100667      -65.041625      -65.080088      0.17      462.68
        706        353.0             0.02               292.74    0.059795      -65.100975      -65.041180      -65.080106      0.12      459.62
        707        353.5             0.02               294.92    0.060240      -65.101096      -65.040856      -65.080107      0.12      455.76
        708        354.0             0.02               298.51    0.060974      -65.100973      -65.040000      -65.080085      0.18      451.37
        709        354.5             0.02               298.62    0.060995      -65.100860      -65.039865      -65.080060      0.24      446.65
        710        355.0             0.02               297.17    0.060699      -65.101034      -65.040335      -65.080064      0.23      441.79
        711        355.5             0.02               302.98    0.061886      -65.101400      -65.039514      -65.080108      0.12      436.89
        712        356.0             0.02               298.92    0.061057      -65.101293      -65.040236      -65.080161     -0.01      431.89
        713        356.5             0.02               294.42    0.060139      -65.099985      -65.039846      -65.080167     -0.02      426.82
        714        357.0             0.02               285.08    0.058231      -65.097467      -65.039236      -65.080102      0.13      427.58
        715        357.5             0.02               269.05    0.054956      -65.094693      -65.039737      -65.080014      0.35      429.38
        716        358.0             0.02               259.53    0.053012      -65.093028      -65.040016      -65.079971      0.45      430.51
        717        358.5             0.03               262.66    0.053650      -65.093163      -65.039513      -65.079993      0.40      430.78
        718        359.0             0.02               268.61    0.054866      -65.094810      -65.039944      -65.080039      0.29      430.11
        719        359.5             0.02               283.59    0.057927      -65.097242      -65.039316      -65.080078      0.19      428.54
        720        360.0             0.02               298.00    0.060870      -65.099780      -65.038910      -65.080114      0.10      426.17
        721        360.5             0.02               309.64    0.063246      -65.101740      -65.038494      -65.080143      0.03      423.23
        722        361.0             0.02               306.70    0.062645      -65.102604      -65.039959      -65.080149      0.02      420.04
        723        361.5             0.02               306.81    0.062668      -65.102280      -65.039611      -65.080131      0.06      417.01
        724        362.0             0.02               303.14    0.061920      -65.101088      -65.039168      -65.080098      0.14      414.48
        725        362.5             0.02               289.57    0.059148      -65.099564      -65.040416      -65.080054      0.25      412.82
        726        363.0             0.02               284.68    0.058148      -65.098511      -65.040363      -65.080006      0.37      412.31
        727        363.5             0.02               285.16    0.058247      -65.098724      -65.040477      -65.079979      0.44      413.10
        728        364.0             0.02               291.31    0.059503      -65.100630      -65.041128      -65.079999      0.39      415.19
        729        364.5             0.03               305.28    0.062355      -65.103923      -65.041568      -65.080070      0.21      418.43
        730        365.0             0.03               315.07    0.064355      -65.107535      -65.043180      -65.080162     -0.01      422.54
        731        365.5             0.02               327.24    0.066841      -65.110103      -65.043262      -65.080225     -0.17      427.13
        732        366.0             0.03               330.34    0.067475      -65.110740      -65.043265      -65.080231     -0.18      431.85
        733        366.5             0.02               320.29    0.065422      -65.109319      -65.043898      -65.080191     -0.08      436.32
        734        367.0             0.03               309.43    0.063204      -65.106480      -65.043276      -65.080134      0.06      440.20
        735        367.5             0.02               291.36    0.059513      -65.103111      -65.043597      -65.080076      0.20      443.25
        736        368.0             0.02               275.82    0.056339      -65.100164      -65.043826      -65.080023      0.33      445.31
        737        368.5             0.03               268.73    0.054891      -65.098477      -65.043585      -65.079996      0.39      446.32
        738        369.0             0.02               266.63    0.054461      -65.098422      -65.043961      -65.080021      0.33      446.31
        739        369.5             0.02               267.52    0.054644      -65.099587      -65.044943      -65.080088      0.17      445.45
        740        370.0             0.02               269.00    0.054946      -65.100947      -65.046001      -65.080150      0.02      443.94
        741        370.5             0.03               273.22    0.055807      -65.101586      -65.045778      -65.080167     -0.02      449.02
        742        371.0             0.02               269.89    0.055127      -65.101218      -65.046091      -65.080140      0.04      454.10
        743        371.5             0.02               264.27    0.053981      -65.100199      -65.046218      -65.080097      0.15      458.83
        744        372.0             0.03               258.82    0.052867      -65.099174      -65.046307      -65.080067      0.22      463.34
        745        372.5             0.02               257.84    0.052666      -65.098633      -65.045967      -65.080062      0.23      467.68
        746        373.0             0.02               256.58    0.052409      -65.098708      -65.046298      -65.080076      0.20      471.85
        747        373.5             0.03               262.95    0.053711      -65.099239      -65.045528      -65.080098      0.14      475.74
        748        374.0             0.03               270.32    0.055216      -65.099952      -65.044737      -65.080112      0.11      479.26
        749        374.5             0.02               271.11    0.055376      -65.100643      -65.045267      -65.080107      0.12      482.23
        750        375.0             0.03               273.96    0.055960      -65.101412      -65.045452      -65.080088      0.17      484.42
        751        375.5             0.02               276.55    0.056488      -65.102587      -65.046100      -65.080078      0.19      485.69
        752        376.0             0.02               283.99    0.058009      -65.104322      -65.046313      -65.080102      0.13      485.90
        753        376.5             0.03               289.07    0.059046      -65.106280      -65.047234      -65.080157     -0.00      484.99
        754        377.0             0.02               294.35    0.060123      -65.107661      -65.047539      -65.080209     -0.13      482.92
        755        377.5             0.02               297.13    0.060692      -65.107729      -65.047037      -65.080223     -0.16      479.69
        756        378.0             0.02               291.38    0.059518      -65.106270      -65.046753      -65.080185     -0.07      475.34
        757        378.5             0.03               273.90    0.055946      -65.103799      -65.047853      -65.080124      0.08      469.98
        758        379.0             0.03               263.10    0.053741      -65.101283      -65.047542      -65.080079      0.19      463.84
        759        379.5             0.02               253.24    0.051726      -65.099392      -65.047666      -65.080070      0.21      457.06
        760        380.0             0.03               247.65    0.050585      -65.098265      -65.047679      -65.080085      0.17      449.95
        761        380.5             0.03               242.06    0.049443      -65.097677      -65.048234      -65.080094      0.15      442.80
        762        381.0             0.02               241.31    0.049289      -65.097475      -65.048186      -65.080086      0.17      435.94
        763        381.5             0.02               238.13    0.048640      -65.097735      -65.049095      -65.080074      0.20      429.59
        764        382.0             0.02               242.15    0.049461      -65.098600      -65.049139      -65.080079      0.19      424.00
        765        382.5             0.02               246.10    0.050268      -65.100005      -65.049737      -65.080105      0.13      419.24
        766        383.0             0.02               251.22    0.051314      -65.101569      -65.050254      -65.080143      0.03      415.37
        767        383.5             0.03               255.71    0.052231      -65.102772      -65.050542      -65.080177     -0.05      412.35
        768        384.0             0.02               263.02    0.053723      -65.103178      -65.049455      -65.080187     -0.07      410.14
        769        384.5             0.02               261.29    0.053372      -65.102684      -65.049313      -65.080157     -0.00      408.66
        770        385.0             0.02               251.68    0.051409      -65.101769      -65.050360      -65.080097      0.14      407.88
        771        385.5             0.02               255.14    0.052115      -65.101407      -65.049293      -65.080049      0.26      407.78
        772        386.0             0.02               261.05    0.053323      -65.102373      -65.049050      -65.080039      0.29      408.33
        773        386.5             0.02               276.21    0.056419      -65.104796      -65.048377      -65.080070      0.21      409.54
        774        387.0             0.03               288.92    0.059014      -65.108193      -65.049179      -65.080126      0.08      411.38
        775        387.5             0.02               306.83    0.062674      -65.111658      -65.048984      -65.080188     -0.08      413.83
        776        388.0             0.02               318.78    0.065114      -65.114238      -65.049124      -65.080245     -0.22      416.90
        777        388.5             0.03               320.89    0.065545      -65.115021      -65.049476      -65.080275     -0.29      420.58
        778        389.0             0.03               318.45    0.065046      -65.113579      -65.048533      -65.080250     -0.23      424.86
        779        389.5             0.02               303.21    0.061933      -65.110266      -65.048333      -65.080168     -0.03      429.78
        780        390.0             0.02               281.04    0.057406      -65.106296      -65.048890      -65.080073      0.20      435.31
        781        390.5             0.03               264.34    0.053993      -65.103134      -65.049141      -65.080020      0.33      441.34
        782        391.0             0.02               260.19    0.053145      -65.101618      -65.048473      -65.080023      0.33      447.78
        783        391.5             0.03               263.04    0.053728      -65.101706      -65.047978      -65.080059      0.24      454.56
        784        392.0             0.02               267.79    0.054699      -65.102795      -65.048097      -65.080105      0.13      461.47
        785        392.5             0.02               276.07    0.056390      -65.104112      -65.047722      -65.080147      0.02      468.27
        786        393.0             0.02               279.04    0.056996      -65.104947      -65.047950      -65.080177     -0.05      474.82
        787        393.5             0.02               276.24    0.056425      -65.104827      -65.048401      -65.080176     -0.05      480.93
        788        394.0             0.03               265.36    0.054203      -65.103806      -65.049603      -65.080142      0.04      486.48
        789        394.5             0.03               263.79    0.053881      -65.102489      -65.048608      -65.080099      0.14      491.38
        790        395.0             0.02               263.45    0.053813      -65.101531      -65.047718      -65.080080      0.19      495.68
        791        395.5             0.03               263.74    0.053872      -65.101227      -65.047356      -65.080087      0.17      499.34
        792        396.0             0.02               264.75    0.054077      -65.101516      -65.047439      -65.080097      0.15      502.29
        793        396.5             0.03               266.17    0.054368      -65.102301      -65.047934      -65.080091      0.16      504.46
        794        397.0             0.02               274.50    0.056069      -65.103696      -65.047627      -65.080081      0.18      505.77
        795        397.5             0.03               277.05    0.056590      -65.105849      -65.049259      -65.080090      0.16      506.17
        796        398.0             0.03               289.79    0.059192      -65.108594      -65.049402      -65.080131      0.06      505.62
        797        398.5             0.03               308.16    0.062944      -65.111376      -65.048432      -65.080193     -0.09      504.11
        798        399.0             0.03               318.68    0.065094      -65.113249      -65.048156      -65.080243     -0.21      501.64
        799        399.5             0.02               326.91    0.066774      -65.113426      -65.046652      -65.080242     -0.21      498.26
        800        400.0             0.02               325.50    0.066487      -65.111885      -65.045398      -65.080176     -0.05      493.99
        801        400.5             0.03               309.69    0.063257      -65.109520      -65.046263      -65.080084      0.18      488.88
        802        401.0             0.03               300.56    0.061391      -65.107703      -65.046312      -65.080039      0.29      483.10
        803        401.5             0.02               296.13    0.060488      -65.107108      -65.046620      -65.080070      0.21      476.68
        804        402.0             0.02               289.57    0.059147      -65.107273      -65.048126      -65.080140      0.04      469.75
        805        402.5             0.03               287.21    0.058665      -65.107201      -65.048536      -65.080188     -0.08      462.51
        806        403.0             0.03               283.40    0.057888      -65.106190      -65.048302      -65.080185     -0.07      455.11
        807        403.5             0.02               278.62    0.056910      -65.104225      -65.047315      -65.080142      0.04      447.71
        808        404.0             0.02               267.97    0.054735      -65.101838      -65.047103      -65.080095      0.15      440.49
        809        404.5             0.02               259.47    0.052999      -65.099687      -65.046689      -65.080074      0.20      433.70
        810        405.0             0.02               247.54    0.050562      -65.098098      -65.047536      -65.080074      0.20      427.48
        811        405.5             0.02               244.99    0.050041      -65.097152      -65.047111      -65.080073      0.20      421.99
        812        406.0             0.02               241.20    0.049266      -65.096882      -65.047616      -65.080067      0.22      417.17
        813        406.5             0.02               240.62    0.049148      -65.097388      -65.048240      -65.080071      0.21      413.05
        814        407.0             0.02               249.41    0.050944      -65.098648      -65.047704      -65.080095      0.15      409.58
        815        407.5             0.02               262.64    0.053647      -65.100327      -65.046681      -65.080128      0.07      406.68
        816        408.0             0.02               270.38    0.055228      -65.101918      -65.046690      -65.080147      0.02      404.30
        817        408.5             0.02               275.93    0.056361      -65.103112      -65.046752      -65.080144      0.03      402.43
        818        409.0             0.02               283.80    0.057970      -65.103980      -65.046010      -65.080131      0.06      401.06
        819        409.5             0.02               284.18    0.058047      -65.104740      -65.046693      -65.080124      0.08      400.15
        820        410.0             0.02               293.88    0.060029      -65.105568      -65.045539      -65.080123      0.08      399.70
        821        410.5             0.02               292.53    0.059752      -65.106541      -65.046790      -65.080120      0.09      399.71
        822        411.0             0.02               302.63    0.061815      -65.107730      -65.045915      -65.080118      0.09      400.18
        823        411.5             0.02               310.38    0.063398      -65.109175      -65.045777      -65.080142      0.04      401.18
        824        412.0             0.02               321.24    0.065616      -65.110439      -65.044824      -65.080192     -0.09      402.74
        825        412.5             0.02               324.40    0.066262      -65.110706      -65.044444      -65.080228     -0.17      404.95
        826        413.0             0.02               319.80    0.065321      -65.109343      -65.044021      -65.080215     -0.14      407.86
        827        413.5             0.02               308.48    0.063010      -65.106418      -65.043409      -65.080168     -0.03      411.46
        828        414.0             0.03               286.96    0.058614      -65.102521      -65.043908      -65.080114      0.10      415.68
        829        414.5             0.02               270.57    0.055267      -65.098457      -65.043191      -65.080064      0.23      420.33
        830        415.0             0.02               251.63    0.051399      -65.094937      -65.043539      -65.080016      0.34      425.22
        831        415.5             0.03               238.61    0.048738      -65.092685      -65.043947      -65.079987      0.42      430.02
        832        416.0             0.02               233.39    0.047672      -65.092110      -65.044438      -65.079997      0.39      434.43
        833        416.5             0.02               242.27    0.049485      -65.093031      -65.043546      -65.080042      0.28      438.20
        834        417.0             0.02               251.68    0.051407      -65.094753      -65.043346      -65.080091      0.16      441.14
        835        417.5             0.02               254.48    0.051980      -65.096463      -65.044483      -65.080122      0.09      443.07
        836        418.0             0.03               257.32    0.052561      -65.097685      -65.045125      -65.080133      0.06      443.87
        837        418.5             0.02               257.94    0.052688      -65.098336      -65.045648      -65.080134      0.05      443.48
        838        419.0             0.02               259.47    0.053000      -65.098503      -65.045504      -65.080133      0.06      441.91
        839        419.5             0.02               259.21    0.052946      -65.098339      -65.045393      -65.080128      0.07      439.18
        840        420.0             0.02               252.77    0.051631      -65.098060      -65.046429      -65.080113      0.11      435.39
        841        420.5             0.03               254.12    0.051906      -65.098080      -65.046175      -65.080092      0.16      430.70
        842        421.0             0.02               259.36    0.052978      -65.098878      -65.045901      -65.080079      0.19      425.23
        843        421.5             0.02               266.87    0.054510      -65.100703      -65.046193      -65.080090      0.16      419.16
        844        422.0             0.02               276.77    0.056532      -65.103417      -65.046885      -65.080124      0.08      412.73
        845        422.5             0.03               286.07    0.058432      -65.106488      -65.048056      -65.080180     -0.06      406.12
        846        423.0             0.02               304.96    0.062291      -65.109046      -65.046755      -65.080243     -0.21      399.46
        847        423.5             0.02               309.55    0.063228      -65.110103      -65.046876      -65.080273     -0.29      392.65
        848        424.0             0.02               295.47    0.060352      -65.109044      -65.048692      -65.080241     -0.21      385.74
        849        424.5             0.02               279.07    0.057002      -65.106342      -65.049340      -65.080168     -0.03      378.76
        850        425.0             0.02               255.48    0.052185      -65.103066      -65.050882      -65.080102      0.13      371.53
        851        425.5             0.02               241.96    0.049424      -65.100243      -65.050820      -65.080071      0.21      364.04
        852        426.0             0.02               232.12    0.047413      -65.098316      -65.050903      -65.080065      0.22      356.12
        853        426.5             0.02               224.23    0.045802      -65.097358      -65.051556      -65.080064      0.23      347.76
        854        427.0             0.02               224.98    0.045955      -65.097354      -65.051399      -65.080067      0.22      339.07
        855        427.5             0.03               233.40    0.047674      -65.098239      -65.050565      -65.080079      0.19      330.04
        856        428.0             0.02               237.24    0.048459      -65.099792      -65.051333      -65.080105      0.13      320.73
        857        428.5             0.02               245.99    0.050245      -65.101606      -65.051361      -65.080139      0.04      311.44
        858        429.0             0.02               253.93    0.051867      -65.103253      -65.051386      -65.080167     -0.03      302.27
        859        429.5             0.02               263.27    0.053775      -65.104396      -65.050621      -65.080175     -0.05      293.43
        860        430.0             0.02               269.42    0.055031      -65.104981      -65.049951      -65.080166     -0.02      285.06
        861        430.5             0.03               267.79    0.054698      -65.105195      -65.050497      -65.080157     -0.00      277.39
        862        431.0             0.02               264.88    0.054104      -65.105299      -65.051195      -65.080157     -0.00      270.72
        863        431.5             0.02               274.05    0.055977      -65.105482      -65.049505      -65.080156      0.00      265.20
        864        432.0             0.03               276.93    0.056566      -65.105846      -65.049281      -65.080138      0.04      260.79
        865        432.5             0.02               284.24    0.058059      -65.106639      -65.048580      -65.080113      0.11      257.54
        866        433.0             0.03               291.35    0.059511      -65.108205      -65.048694      -65.080106      0.12      255.35
        867        433.5             0.02               298.41    0.060954      -65.110559      -65.049605      -65.080133      0.06      254.05
        868        434.0             0.02               303.09    0.061909      -65.113248      -65.051339      -65.080178     -0.05      253.41
        869        434.5             0.03               313.82    0.064100      -65.115554      -65.051454      -65.080220     -0.16      253.19
        870        435.0             0.02               319.43    0.065247      -65.116806      -65.051559      -65.080240     -0.20      253.16
        871        435.5             0.02               318.93    0.065144      -65.116591      -65.051448      -65.080224     -0.16      253.14
        872        436.0             0.02               305.85    0.062472      -65.115033      -65.052562      -65.080179     -0.06      252.98
        873        436.5             0.03               285.94    0.058407      -65.112754      -65.054347      -65.080132      0.06      252.60
        874        437.0             0.02               279.18    0.057026      -65.110524      -65.053498      -65.080103      0.13      251.94
        875        437.5             0.02               273.48    0.055862      -65.108747      -65.052886      -65.080100      0.14      250.98
        876        438.0             0.02               268.69    0.054881      -65.107480      -65.052599      -65.080111      0.11      249.71
        877        438.5             0.02               272.87    0.055737      -65.106608      -65.050871      -65.080116      0.10      248.17
        878        439.0             0.02               275.54    0.056281      -65.106065      -65.049785      -65.080103      0.13      246.39
        879        439.5             0.02               274.08    0.055984      -65.106058      -65.050075      -65.080078      0.19      244.45
        880        440.0             0.02               274.30    0.056028      -65.106982      -65.050955      -65.080078      0.19      242.44
        881        440.5             0.02               283.56    0.057920      -65.108900      -65.050980      -65.080128      0.07      240.42
        882        441.0             0.02               296.43    0.060549      -65.111112      -65.050563      -65.080220     -0.15      238.39
        883        441.5             0.02               296.99    0.060663      -65.112289      -65.051626      -65.080301     -0.35      236.31
        884        442.0             0.02               289.11    0.059053      -65.111303      -65.052250      -65.080321     -0.40      234.13
        885        442.5             0.02               271.77    0.055511      -65.108021      -65.052510      -65.080260     -0.25      231.72
        886        443.0             0.02               249.90    0.051044      -65.103499      -65.052455      -65.080138      0.05      228.93
        887        443.5             0.02               227.48    0.046465      -65.099659      -65.053194      -65.080017      0.34      225.64
        888        444.0             0.03               225.44    0.046048      -65.098379      -65.052332      -65.079976      0.44      221.76
        889        444.5             0.03               226.81    0.046328      -65.100236      -65.053908      -65.080038      0.29      217.18
        890        445.0             0.02               246.78    0.050406      -65.104231      -65.053825      -65.080150      0.02      212.01
        891        445.5             0.02               265.86    0.054304      -65.108680      -65.054376      -65.080242     -0.21      206.23
        892        446.0             0.02               280.06    0.057204      -65.112013      -65.054809      -65.080283     -0.31      199.93
        893        446.5             0.02               293.10    0.059868      -65.113473      -65.053606      -65.080284     -0.31      193.25
        894        447.0             0.02               288.04    0.058835      -65.112892      -65.054057      -65.080266     -0.27      186.20
        895        447.5             0.02               282.70    0.057744      -65.110471      -65.052727      -65.080234     -0.19      179.04
        896        448.0             0.02               267.92    0.054726      -65.106679      -65.051953      -65.080176     -0.05      171.78
        897        448.5             0.02               245.38    0.050122      -65.102431      -65.052309      -65.080090      0.16      164.61
        898        449.0             0.02               232.10    0.047409      -65.099130      -65.051721      -65.080010      0.36      157.74
        899        449.5             0.02               231.35    0.047255      -65.098010      -65.050755      -65.079984      0.42      151.26
        900        450.0             0.02               236.07    0.048219      -65.099454      -65.051235      -65.080036      0.30      145.24
        901        450.5             0.02               254.43    0.051969      -65.102671      -65.050702      -65.080134      0.05      139.88
        902        451.0             0.02               276.17    0.056410      -65.106179      -65.049769      -65.080229     -0.18      135.16
        903        451.5             0.02               289.86    0.059206      -65.108463      -65.049257      -65.080279     -0.30      131.09
        904        452.0             0.03               294.87    0.060229      -65.108655      -65.048426      -65.080272     -0.28      127.67
        905        452.5             0.02               281.01    0.057399      -65.106781      -65.049383      -65.080229     -0.18      124.87
        906        453.0             0.02               257.53    0.052603      -65.103559      -65.050955      -65.080184     -0.07      122.69
        907        453.5             0.02               237.02    0.048414      -65.099907      -65.051493      -65.080147      0.02      121.12
        908        454.0             0.02               225.98    0.046158      -65.096577      -65.050419      -65.080103      0.13      120.17
        909        454.5             0.03               215.58    0.044035      -65.094276      -65.050242      -65.080046      0.27      119.84
        910        455.0             0.02               215.70    0.044059      -65.093871      -65.049812      -65.080012      0.35      120.19
        911        455.5             0.02               228.17    0.046605      -65.095820      -65.049215      -65.080044      0.27      121.26
        912        456.0             0.02               249.00    0.050860      -65.099565      -65.048705      -65.080141      0.04      123.09
        913        456.5             0.02               266.08    0.054350      -65.103562      -65.049213      -65.080250     -0.23      125.68
        914        457.0             0.02               276.85    0.056549      -65.106080      -65.049530      -65.080309     -0.37      129.00
        915        457.5             0.02               283.21    0.057848      -65.106224      -65.048376      -65.080287     -0.32      133.01
        916        458.0             0.03               274.96    0.056162      -65.104262      -65.048099      -65.080197     -0.10      137.73
        917        458.5             0.03               258.96    0.052895      -65.101461      -65.048567      -65.080098      0.14      143.06
        918        459.0             0.02               244.68    0.049977      -65.099323      -65.049345      -65.080049      0.26      148.90
        919        459.5             0.02               246.43    0.050336      -65.098626      -65.048290      -65.080064      0.23      155.12
        920        460.0             0.02               249.50    0.050963      -65.099139      -65.048177      -65.080109      0.12      161.72
        921        460.5             0.02               250.40    0.051147      -65.100116      -65.048969      -65.080147      0.02      168.45
        922        461.0             0.03               252.05    0.051483      -65.100948      -65.049465      -65.080156      0.00      175.07
        923        461.5             0.02               253.42    0.051763      -65.101498      -65.049735      -65.080136      0.05      181.38
        924        462.0             0.03               252.32    0.051538      -65.102042      -65.050504      -65.080111      0.11      187.21
        925        462.5             0.02               262.30    0.053578      -65.102934      -65.049356      -65.080113      0.11      192.39
        926        463.0             0.02               274.42    0.056053      -65.104139      -65.048086      -65.080148      0.02      196.91
        927        463.5             0.03               277.40    0.056662      -65.105085      -65.048424      -65.080190     -0.08      200.73
        928        464.0             0.03               280.97    0.057391      -65.105160      -65.047769      -65.080204     -0.12      203.79
        929        464.5             0.02               277.06    0.056593      -65.104192      -65.047599      -65.080181     -0.06      206.12
        930        465.0             0.03               277.58    0.056699      -65.102573      -65.045875      -65.080136      0.05      207.78
        931        465.5             0.03               277.00    0.056579      -65.100960      -65.044381      -65.080103      0.13      208.80
        932        466.0             0.03               265.33    0.054197      -65.099831      -65.045634      -65.080100      0.14      209.21
        933        466.5             0.03               268.28    0.054799      -65.099382      -65.044582      -65.080108      0.12      209.03
        934        467.0             0.03               271.72    0.055501      -65.099593      -65.044092      -65.080102      0.13      208.31
        935        467.5             0.03               270.02    0.055154      -65.100510      -65.045357      -65.080093      0.16      207.06
        936        468.0             0.03               268.38    0.054820      -65.102215      -65.047395      -65.080114      0.10      205.38
        937        468.5             0.03               279.11    0.057011      -65.104384      -65.047373      -65.080176     -0.05      203.31
        938        469.0             0.03               287.76    0.058778      -65.106108      -65.047330      -65.080242     -0.21      200.87
        939        469.5             0.03               288.32    0.058893      -65.106301      -65.047408      -65.080267     -0.27      198.04
        940        470.0             0.03               277.47    0.056676      -65.104495      -65.047819      -65.080234     -0.19      194.85
        941        470.5             0.03               257.87    0.052673      -65.101130      -65.048457      -65.080160     -0.01      191.28
        942        471.0             0.02               245.39    0.050122      -65.097352      -65.047229      -65.080072      0.21      187.33
        943        471.5             0.03               238.33    0.048682      -65.094394      -65.045712      -65.080006      0.37      182.98
        944        472.0             0.04               233.04    0.047600      -65.093180      -65.045580      -65.079987      0.41      178.26
        945        472.5             0.02               241.27    0.049281      -65.093990      -65.044709      -65.080014      0.35      173.36
        946        473.0             0.02               247.68    0.050590      -65.096400      -65.045810      -65.080067      0.22      168.41
        947        473.5             0.02               267.08    0.054554      -65.099546      -65.044992      -65.080127      0.07      163.68
        948        474.0             0.02               283.58    0.057925      -65.102548      -65.044623      -65.080184     -0.07      159.28
        949        474.5             0.02               294.49    0.060152      -65.104505      -65.044353      -65.080218     -0.15      155.40
        950        475.0             0.02               297.33    0.060733      -65.104952      -65.044219      -65.080210     -0.13      152.20
        951        475.5             0.03               296.19    0.060499      -65.104097      -65.043598      -65.080166     -0.02      149.80
        952        476.0             0.02               287.55    0.058734      -65.102666      -65.043931      -65.080122      0.09      148.31
        953        476.5             0.02               281.78    0.057556      -65.101457      -65.043901      -65.080099      0.14      147.84
        954        477.0             0.02               282.00    0.057602      -65.100952      -65.043350      -65.080095      0.15      148.48
        955        477.5             0.02               286.44    0.058507      -65.101271      -65.042763      -65.080105      0.13      150.32
        956        478.0             0.03               291.36    0.059513      -65.102221      -65.042708      -65.080131      0.06      153.38
        957        478.5             0.03               294.86    0.060229      -65.103340      -65.043111      -65.080165     -0.02      157.65
        958        479.0             0.02               298.82    0.061037      -65.104054      -65.043017      -65.080195     -0.09      163.04
        959        479.5             0.03               294.73    0.060201      -65.103849      -65.043648      -65.080207     -0.12      169.40
        960        480.0             0.03               285.95    0.058408      -65.102490      -65.044082      -65.080190     -0.08      176.51
        961        480.5             0.03               275.54    0.056281      -65.100215      -65.043934      -65.080144      0.03      184.17
        962        481.0             0.02               257.95    0.052689      -65.097645      -65.044956      -65.080091      0.16      192.22
        963        481.5             0.03               247.32    0.050517      -65.095579      -65.045062      -65.080054      0.25      200.40
        964        482.0             0.03               244.62    0.049965      -65.094556      -65.044591      -65.080038      0.29      208.67
        965        482.5             0.03               243.35    0.049705      -65.094751      -65.045046      -65.080045      0.27      216.95
        966        483.0             0.02               253.15    0.051707      -65.096013      -65.044306      -65.080078      0.19      225.09
        967        483.5             0.02               262.23    0.053563      -65.097819      -65.044256      -65.080136      0.05      233.10
        968        484.0             0.02               269.38    0.055023      -65.099270      -65.044247      -65.080196     -0.10      240.85
        969        484.5             0.03               265.45    0.054222      -65.099540      -65.045319      -65.080215     -0.14      248.26
        970        485.0             0.02               257.47    0.052590      -65.098512      -65.045922      -65.080167     -0.02      255.19
        971        485.5             0.02               245.31    0.050107      -65.097100      -65.046993      -65.080079      0.19      261.61
        972        486.0             0.02               245.42    0.050129      -65.096762      -65.046634      -65.080021      0.33      267.47
        973        486.5             0.02               255.72    0.052234      -65.098430      -65.046197      -65.080039      0.29      272.86
        974        487.0             0.02               275.47    0.056267      -65.101845      -65.045578      -65.080122      0.08      277.79
        975        487.5             0.02               296.09    0.060480      -65.105706      -65.045226      -65.080227     -0.17      282.23
        976        488.0             0.03               312.75    0.063882      -65.108321      -65.044438      -65.080304     -0.36      286.10
        977        488.5             0.02               306.78    0.062662      -65.108434      -65.045772      -65.080313     -0.38      289.31
        978        489.0             0.02               291.12    0.059464      -65.105924      -65.046460      -65.080245     -0.22      291.66
        979        489.5             0.02               272.34    0.055628      -65.101925      -65.046297      -65.080132      0.06      293.01
        980        490.0             0.03               250.34    0.051133      -65.098145      -65.047012      -65.080037      0.29      293.28
        981        490.5             0.02               238.57    0.048730      -65.096053      -65.047324      -65.080013      0.35      292.38
        982        491.0             0.03               238.80    0.048777      -65.096036      -65.047259      -65.080053      0.25      290.32
        983        491.5             0.03               246.80    0.050412      -65.097490      -65.047078      -65.080109      0.12      287.15
        984        492.0             0.02               257.90    0.052678      -65.099491      -65.046813      -65.080149      0.02      282.98
        985        492.5             0.02               267.55    0.054650      -65.101313      -65.046663      -65.080173     -0.04      277.94
        986        493.0             0.02               266.85    0.054506      -65.102463      -65.047957      -65.080196     -0.10      272.22
        987        493.5             0.02               264.44    0.054014      -65.102563      -65.048549      -65.080220     -0.16      266.07
        988        494.0             0.02               256.32    0.052355      -65.101369      -65.049014      -65.080222     -0.16      259.63
        989        494.5             0.02               244.95    0.050033      -65.099001      -65.048968      -65.080178     -0.05      253.11
        990        495.0             0.02               230.79    0.047141      -65.096261      -65.049120      -65.080090      0.16      246.71
        991        495.5             0.02               224.90    0.045937      -65.094557      -65.048620      -65.080012      0.35      240.68
        992        496.0             0.02               225.07    0.045973      -65.095086      -65.049113      -65.080003      0.38      235.23
        993        496.5             0.02               237.05    0.048420      -65.097995      -65.049575      -65.080078      0.19      230.62
        994        497.0             0.02               255.53    0.052194      -65.102187      -65.049992      -65.080193     -0.09      227.00
        995        497.5             0.02               271.85    0.055528      -65.105926      -65.050399      -65.080285     -0.31      224.44
        996        498.0             0.03               282.19    0.057639      -65.107804      -65.050165      -65.080311     -0.38      222.95
        997        498.5             0.02               281.69    0.057538      -65.107389      -65.049851      -65.080268     -0.27      222.48
        998        499.0             0.03               272.29    0.055617      -65.105284      -65.049666      -65.080187     -0.07      222.96
        999        499.5             0.02               259.20    0.052944      -65.102682      -65.049738      -65.080120      0.09      224.33
       1000        500.0             0.03               248.43    0.050745      -65.100634      -65.049889      -65.080093      0.15      226.53
       1001        500.5             0.02               238.47    0.048710      -65.099602      -65.050893      -65.080094      0.15      229.54
       1002        501.0             0.02               239.05    0.048828      -65.099651      -65.050823      -65.080096      0.15      233.34
       1003        501.5             0.02               248.87    0.050834      -65.100733      -65.049900      -65.080101      0.14      237.98
       1004        502.0             0.02               262.16    0.053549      -65.102678      -65.049128      -65.080131      0.06      243.51
       1005        502.5             0.02               278.98    0.056985      -65.104911      -65.047926      -65.080192     -0.09      249.93
       1006        503.0             0.02               288.22    0.058872      -65.106406      -65.047535      -65.080263     -0.26      257.24
       1007        503.5             0.02               281.87    0.057575      -65.106046      -65.048472      -65.080301     -0.35      265.37
       1008        504.0             0.03               267.77    0.054694      -65.103369      -65.048675      -65.080273     -0.29      274.20
       1009        504.5             0.03               250.84    0.051236      -65.098957      -65.047720      -65.080174     -0.04      283.74
       1010        505.0             0.02               228.44    0.046662      -65.094358      -65.047696      -65.080040      0.29      294.06
       1011        505.5             0.02               205.67    0.042010      -65.091667      -65.049657      -65.079956      0.49      304.98
       1012        506.0             0.02               210.96    0.043090      -65.092234      -65.049144      -65.079992      0.40      316.13
       1013        506.5             0.02               225.55    0.046071      -65.095543      -65.049472      -65.080125      0.08      327.65
       1014        507.0             0.02               243.23    0.049682      -65.099540      -65.049859      -65.080261     -0.26      339.19
       1015        507.5             0.02               260.98    0.053307      -65.102131      -65.048824      -65.080319     -0.40      350.45
       1016        508.0             0.02               253.51    0.051782      -65.102330      -65.050549      -65.080279     -0.30      361.29
       1017        508.5             0.03               244.66    0.049974      -65.100674      -65.050700      -65.080184     -0.07      371.14
       1018        509.0             0.03               235.39    0.048081      -65.098623      -65.050542      -65.080099      0.14      379.94
       1019        509.5             0.02               230.21    0.047023      -65.097464      -65.050441      -65.080065      0.22      387.60
       1020        510.0             0.02               225.76    0.046115      -65.097749      -65.051634      -65.080078      0.19      394.03
       1021        510.5             0.02               235.11    0.048024      -65.099347      -65.051323      -65.080110      0.11      399.15
       1022        511.0             0.02               257.14    0.052522      -65.101814      -65.049292      -65.080146      0.03      403.05
       1023        511.5             0.02               275.03    0.056178      -65.104550      -65.048372      -65.080180     -0.06      405.84
       1024        512.0             0.02               286.39    0.058497      -65.106883      -65.048386      -65.080208     -0.13      407.54
       1025        512.5             0.02               296.88    0.060640      -65.108337      -65.047697      -65.080228     -0.17      408.23
       1026        513.0             0.02               296.53    0.060570      -65.108618      -65.048048      -65.080243     -0.21      408.04
       1027        513.5             0.02               289.56    0.059145      -65.107536      -65.048392      -65.080252     -0.23      407.11
       1028        514.0             0.02               278.03    0.056790      -65.105097      -65.048307      -65.080232     -0.18      405.62
       1029        514.5             0.02               263.73    0.053870      -65.101769      -65.047899      -65.080156      0.00      403.73
       1030        515.0             0.02               245.20    0.050084      -65.098760      -65.048675      -65.080057      0.24      401.58
       1031        515.5             0.02               238.20    0.048654      -65.097568      -65.048914      -65.080027      0.32      399.25
       1032        516.0             0.02               243.09    0.049654      -65.098601      -65.048947      -65.080109      0.12      396.77
       1033        516.5             0.02               250.27    0.051120      -65.100592      -65.049471      -65.080240     -0.20      394.07
       1034        517.0             0.03               258.37    0.052775      -65.101558      -65.048783      -65.080313     -0.38      391.11
       1035        517.5             0.02               257.05    0.052504      -65.100312      -65.047807      -65.080283     -0.31      387.80
       1036        518.0             0.02               245.81    0.050209      -65.097086      -65.046877      -65.080184     -0.07      384.11
       1037        518.5             0.02               227.30    0.046428      -65.093213      -65.046785      -65.080082      0.18      380.05
       1038        519.0             0.03               218.13    0.044555      -65.090217      -65.045662      -65.080023      0.33      375.77
       1039        519.5             0.03               214.17    0.043747      -65.088962      -65.045215      -65.080011      0.36      371.34
       1040        520.0             0.03               215.53    0.044023      -65.089642      -65.045619      -65.080028      0.32      366.97
       1041        520.5             0.03               232.48    0.047487      -65.092021      -65.044534      -65.080054      0.25      362.90
       1042        521.0             0.03               250.48    0.051163      -65.095707      -65.044544      -65.080085      0.18      359.27
       1043        521.5             0.02               273.70    0.055905      -65.100145      -65.044240      -65.080122      0.08      356.34
       1044        522.0             0.02               298.81    0.061034      -65.104744      -65.043710      -65.080176     -0.05      354.32
       1045        522.5             0.02               321.77    0.065724      -65.108675      -65.042951      -65.080243     -0.21      353.42
       1046        523.0             0.02               326.55    0.066700      -65.110940      -65.044239      -65.080294     -0.34      353.85
       1047        523.5             0.02               321.39    0.065648      -65.110895      -65.045247      -65.080281     -0.30      355.76
       1048        524.0             0.02               310.54    0.063430      -65.109012      -65.045582      -65.080182     -0.06      359.22
       1049        524.5             0.02               295.05    0.060267      -65.106942      -65.046675      -65.080045      0.27      364.21
       1050        525.0             0.02               294.61    0.060177      -65.106791      -65.046614      -65.079982      0.43      370.54
       1051        525.5             0.03               308.09    0.062930      -65.109462      -65.046531      -65.080067      0.22      378.03
       1052        526.0             0.02               330.50    0.067509      -65.113664      -65.046155      -65.080240     -0.20      386.36
       1053        526.5             0.02               345.51    0.070573      -65.116796      -65.046223      -65.080364     -0.51      395.20
       1054        527.0             0.03               344.59    0.070385      -65.116889      -65.046503      -65.080361     -0.50      404.18
       1055        527.5             0.02               325.84    0.066556      -65.113842      -65.047286      -65.080267     -0.27      412.98
       1056        528.0             0.02               304.60    0.062218      -65.109021      -65.046802      -65.080160     -0.01      421.32
       1057        528.5             0.02               283.86    0.057982      -65.104011      -65.046029      -65.080082      0.18      429.10
       1058        529.0             0.02               267.39    0.054618      -65.099967      -65.045349      -65.080046      0.27      436.23
       1059        529.5             0.03               252.77    0.051631      -65.097447      -65.045816      -65.080041      0.28      442.63
       1060        530.0             0.03               244.72    0.049986      -65.096562      -65.046576      -65.080056      0.25      448.22
       1061        530.5             0.02               246.37    0.050324      -65.097118      -65.046794      -65.080079      0.19      452.97
       1062        531.0             0.03               261.88    0.053491      -65.098770      -65.045280      -65.080109      0.12      456.97
       1063        531.5             0.02               273.82    0.055931      -65.101043      -65.045112      -65.080149      0.02      460.36
       1064        532.0             0.03               280.17    0.057226      -65.103245      -65.046019      -65.080199     -0.10      463.20
       1065        532.5             0.02               283.88    0.057986      -65.104666      -65.046680      -65.080244     -0.21      465.57
       1066        533.0             0.02               289.16    0.059064      -65.104773      -65.045709      -65.080260     -0.25      467.57
       1067        533.5             0.02               286.13    0.058444      -65.103435      -65.044991      -65.080226     -0.17      469.24
       1068        534.0             0.02               278.08    0.056800      -65.101241      -65.044441      -65.080144      0.03      470.51
       1069        534.5             0.02               271.17    0.055389      -65.099512      -65.044123      -65.080060      0.24      471.25
       1070        535.0             0.03               269.00    0.054945      -65.099539      -65.044594      -65.080046      0.27      471.26
       1071        535.5             0.02               277.95    0.056774      -65.101552      -65.044779      -65.080120      0.09      470.32
       1072        536.0             0.02               294.80    0.060216      -65.104468      -65.044251      -65.080216     -0.15      468.23
       1073        536.5             0.02               311.09    0.063543      -65.106778      -65.043235      -65.080264     -0.26      464.84
       1074        537.0             0.02               319.84    0.065329      -65.107518      -65.042189      -65.080259     -0.25      460.04
       1075        537.5             0.02               309.18    0.063153      -65.106489      -65.043336      -65.080224     -0.17      453.83
       1076        538.0             0.03               298.72    0.061016      -65.104124      -65.043108      -65.080175     -0.04      446.40
       1077        538.5             0.02               284.62    0.058137      -65.101117      -65.042980      -65.080122      0.08      437.80
       1078        539.0             0.02               272.49    0.055659      -65.098215      -65.042556      -65.080081      0.19      428.23
       1079        539.5             0.02               263.50    0.053823      -65.095994      -65.042171      -65.080062      0.23      417.93
       1080        540.0             0.02               256.15    0.052322      -65.094714      -65.042392      -65.080063      0.23      407.19
       1081        540.5             0.02               254.74    0.052032      -65.094377      -65.042344      -65.080076      0.20      396.40
       1082        541.0             0.02               257.15    0.052525      -65.094784      -65.042259      -65.080104      0.13      385.88
       1083        541.5             0.02               260.42    0.053192      -65.095519      -65.042326      -65.080147      0.02      376.00
       1084        542.0             0.03               261.83    0.053481      -65.095968      -65.042487      -65.080194     -0.09      367.07
       1085        542.5             0.02               261.32    0.053377      -65.095527      -65.042150      -65.080218     -0.15      359.32
       1086        543.0             0.02               258.45    0.052791      -65.093944      -65.041153      -65.080197     -0.10      352.83
       1087        543.5             0.02               248.22    0.050702      -65.091631      -65.040930      -65.080125      0.08      347.56
       1088        544.0             0.02               241.31    0.049290      -65.089774      -65.040484      -65.080042      0.28      344.74
       1089        544.5             0.03               243.95    0.049830      -65.089665      -65.039835      -65.080018      0.34      345.74
       1090        545.0             0.02               260.50    0.053209      -65.091656      -65.038447      -65.080087      0.17      347.04
       1091        545.5             0.02               272.29    0.055619      -65.094674      -65.039056      -65.080195     -0.09      348.31
       1092        546.0             0.02               284.51    0.058115      -65.097003      -65.038888      -65.080252     -0.23      349.21
       1093        546.5             0.02               292.92    0.059832      -65.097713      -65.037881      -65.080231     -0.18      349.52
       1094        547.0             0.02               283.32    0.057871      -65.096925      -65.039054      -65.080166     -0.02      349.05
       1095        547.5             0.02               269.07    0.054959      -65.095520      -65.040561      -65.080104      0.13      347.77
       1096        548.0             0.02               261.26    0.053364      -65.094470      -65.041105      -65.080073      0.20      345.70
       1097        548.5             0.02               261.49    0.053412      -65.094264      -65.040852      -65.080073      0.21      342.96
       1098        549.0             0.02               262.31    0.053580      -65.094890      -65.041311      -65.080088      0.17      339.72
       1099        549.5             0.02               266.83    0.054503      -65.096073      -65.041570      -65.080108      0.12      336.25
       1100        550.0             0.02               268.88    0.054922      -65.097489      -65.042567      -65.080128      0.07      332.86
       1101        550.5             0.02               278.01    0.056787      -65.098833      -65.042046      -65.080148      0.02      329.83
       1102        551.0             0.02               278.57    0.056901      -65.099803      -65.042902      -65.080169     -0.03      327.37
       1103        551.5             0.03               287.33    0.058689      -65.100107      -65.041418      -65.080182     -0.06      328.58
       1104        552.0             0.02               287.44    0.058712      -65.099577      -65.040865      -65.080180     -0.06      331.03
       1105        552.5             0.02               274.51    0.056071      -65.098258      -65.042187      -65.080159     -0.01      333.96
       1106        553.0             0.02               267.83    0.054706      -65.096629      -65.041923      -65.080129      0.07      337.05
       1107        553.5             0.02               269.21    0.054988      -65.095272      -65.040284      -65.080103      0.13      340.07
       1108        554.0             0.02               263.94    0.053913      -65.094599      -65.040687      -65.080085      0.18      342.75
       1109        554.5             0.02               268.37    0.054817      -65.094916      -65.040100      -65.080083      0.18      344.77
       1110        555.0             0.02               278.32    0.056849      -65.096258      -65.039409      -65.080105      0.13      345.92
       1111        555.5             0.02               286.71    0.058563      -65.098216      -65.039653      -65.080142      0.04      346.05
       1112        556.0             0.02               298.72    0.061017      -65.100126      -65.039110      -65.080180     -0.06      345.09
       1113        556.5             0.02               302.01    0.061688      -65.101330      -65.039643      -65.080208     -0.13      343.04
       1114        557.0             0.02               295.18    0.060292      -65.101328      -65.041036      -65.080211     -0.13      339.96
       1115        557.5             0.02               296.40    0.060542      -65.100146      -65.039604      -65.080175     -0.05      336.00
       1116        558.0             0.02               283.86    0.057982      -65.098295      -65.040314      -65.080109      0.12      331.22
       1117        558.5             0.03               274.33    0.056035      -65.096755      -65.040720      -65.080050      0.26      325.89
       1118        559.0             0.03               270.58    0.055267      -65.096431      -65.041164      -65.080035      0.30      320.21
       1119        559.5             0.02               274.33    0.056034      -65.097564      -65.041530      -65.080070      0.21      314.40
       1120        560.0             0.02               285.41    0.058298      -65.099646      -65.041348      -65.080126      0.08      308.66
       1121        560.5             0.02               294.85    0.060225      -65.101842      -65.041617      -65.080168     -0.03      303.12
       1122        561.0             0.03               302.17    0.061720      -65.103481      -65.041761      -65.080184     -0.07      297.92
       1123        561.5             0.02               309.04    0.063124      -65.104288      -65.041164      -65.080186     -0.07      293.09
       1124        562.0             0.02               308.76    0.063068      -65.104186      -65.041118      -65.080191     -0.08      288.56
       1125        562.5             0.03               298.56    0.060984      -65.103110      -65.042127      -65.080197     -0.10      284.25
       1126        563.0             0.03               288.58    0.058944      -65.101077      -65.042132      -65.080195     -0.09      280.10
       1127        563.5             0.02               286.34    0.058488      -65.098242      -65.039754      -65.080160     -0.01      275.93
       1128        564.0             0.03               269.87    0.055123      -65.095063      -65.039940      -65.080086      0.17      271.59
       1129        564.5             0.02               260.81    0.053272      -65.092657      -65.039384      -65.080022      0.33      267.11
       1130        565.0             0.03               260.58    0.053225      -65.091930      -65.038705      -65.080029      0.31      262.47
       1131        565.5             0.02               261.43    0.053399      -65.092724      -65.039325      -65.080099      0.14      257.73
       1132        566.0             0.02               272.61    0.055683      -65.093960      -65.038277      -65.080169     -0.03      253.01
       1133        566.5             0.02               270.24    0.055200      -65.094525      -65.039325      -65.080191     -0.09      248.38
       1134        567.0             0.02               267.53    0.054646      -65.093979      -65.039333      -65.080170     -0.03      244.08
       1135        567.5             0.02               264.13    0.053951      -65.092626      -65.038676      -65.080132      0.06      240.22
       1136        568.0             0.02               258.44    0.052790      -65.090994      -65.038205      -65.080103      0.13      236.94
       1137        568.5             0.02               248.94    0.050848      -65.089520      -65.038672      -65.080092      0.16      234.40
       1138        569.0             0.02               247.10    0.050473      -65.088462      -65.037988      -65.080089      0.17      232.74
       1139        569.5             0.02               245.84    0.050216      -65.087941      -65.037725      -65.080076      0.20      232.01
       1140        570.0             0.02               252.54    0.051584      -65.088182      -65.036598      -65.080053      0.25      232.23
       1141        570.5             0.02               254.22    0.051928      -65.089499      -65.037571      -65.080046      0.27      233.34
       1142        571.0             0.02               265.77    0.054286      -65.091956      -65.037670      -65.080079      0.19      235.20
       1143        571.5             0.03               276.66    0.056511      -65.095107      -65.038596      -65.080147      0.02      237.60
       1144        572.0             0.02               290.45    0.059328      -65.097953      -65.038625      -65.080222     -0.16      240.34
       1145        572.5             0.02               295.67    0.060393      -65.099413      -65.039020      -65.080277     -0.30      243.20
       1146        573.0             0.02               292.38    0.059721      -65.098717      -65.038995      -65.080272     -0.28      246.01
       1147        573.5             0.03               278.84    0.056955      -65.096049      -65.039094      -65.080178     -0.05      248.64
       1148        574.0             0.02               268.08    0.054758      -65.092865      -65.038106      -65.080045      0.27      250.99
       1149        574.5             0.02               258.66    0.052835      -65.091065      -65.038230      -65.079979      0.43      253.06
       1150        575.0             0.03               265.52    0.054235      -65.091592      -65.037358      -65.080025      0.32      254.83
       1151        575.5             0.03               271.06    0.055367      -65.093726      -65.038359      -65.080123      0.08      256.34
       1152        576.0             0.02               273.94    0.055955      -65.095913      -65.039958      -65.080194     -0.09      257.61
       1153        576.5             0.02               282.88    0.057780      -65.097043      -65.039263      -65.080217     -0.15      258.68
       1154        577.0             0.02               286.52    0.058523      -65.096735      -65.038211      -65.080197     -0.10      259.61
       1155        577.5             0.02               277.97    0.056777      -65.095168      -65.038390      -65.080149      0.02      260.44
       1156        578.0             0.02               273.99    0.055966      -65.093064      -65.037098      -65.080093      0.15      261.18
       1157        578.5             0.02               264.99    0.054127      -65.091244      -65.037117      -65.080053      0.25      261.85
       1158        579.0             0.02               261.76    0.053466      -65.090368      -65.036902      -65.080042      0.28      262.43
       1159        579.5             0.03               259.40    0.052986      -65.090672      -65.037686      -65.080062      0.23      262.87
       1160        580.0             0.02               260.68    0.053247      -65.091944      -65.038697      -65.080103      0.13      263.11
       1161        580.5             0.02               266.46    0.054427      -65.093689      -65.039262      -65.080146      0.02      263.06
       1162        581.0             0.02               278.81    0.056950      -65.095371      -65.038421      -65.080174     -0.04      262.64
       1163        581.5             0.02               286.19    0.058456      -65.096610      -65.038154      -65.080186     -0.07      261.77
       1164        582.0             0.03               283.48    0.057904      -65.097172      -65.039268      -65.080200     -0.11      260.40
       1165        582.5             0.02               279.27    0.057044      -65.096932      -65.039888      -65.080208     -0.13      258.55
       1166        583.0             0.02               271.78    0.055513      -65.095946      -65.040433      -65.080173     -0.04      256.28
       1167        583.5             0.02               269.96    0.055142      -65.094858      -65.039716      -65.080093      0.16      253.67
       1168        584.0             0.02               267.58    0.054656      -65.094809      -65.040153      -65.080038      0.29      250.83
       1169        584.5             0.02               272.45    0.055651      -65.096507      -65.040856      -65.080070      0.21      247.92
       1170        585.0             0.03               287.67    0.058758      -65.099420      -65.040662      -65.080159     -0.01      245.08
       1171        585.5             0.02               298.51    0.060974      -65.102167      -65.041193      -65.080230     -0.18      242.40
       1172        586.0             0.02               303.89    0.062072      -65.103538      -65.041466      -65.080252     -0.23      239.99
       1173        586.5             0.02               307.99    0.062910      -65.103149      -65.040239      -65.080226     -0.17      237.89
       1174        587.0             0.02               296.40    0.060542      -65.101281      -65.040739      -65.080177     -0.05      236.13
       1175        587.5             0.02               281.24    0.057445      -65.098684      -65.041239      -65.080122      0.09      234.75
       1176        588.0             0.03               272.64    0.055689      -65.096282      -65.040594      -65.080073      0.20      233.73
       1177        588.5             0.02               268.80    0.054905      -65.094854      -65.039949      -65.080041      0.28      233.06
       1178        589.0             0.02               266.23    0.054380      -65.094898      -65.040519      -65.080040      0.29      232.71
       1179        589.5             0.03               279.07    0.057003      -65.096456      -65.039453      -65.080078      0.19      232.62
       1180        590.0             0.02               290.89    0.059418      -65.098968      -65.039550      -65.080148      0.02      232.77
       1181        590.5             0.03               304.50    0.062198      -65.101336      -65.039138      -65.080224     -0.16      233.13
       1182        591.0             0.02               310.35    0.063391      -65.102434      -65.039042      -65.080280     -0.30      233.69
       1183        591.5             0.03               307.89    0.062890      -65.101420      -65.038530      -65.080304     -0.36      234.50
       1184        592.0             0.02               290.48    0.059333      -65.098004      -65.038671      -65.080277     -0.29      235.62
       1185        592.5             0.02               263.37    0.053796      -65.092789      -65.038993      -65.080172     -0.04      237.13
       1186        593.0             0.02               239.73    0.048967      -65.087548      -65.038581      -65.080020      0.33      239.14
       1187        593.5             0.02               228.37    0.046647      -65.084560      -65.037913      -65.079926      0.57      241.74
       1188        594.0             0.02               229.72    0.046923      -65.085177      -65.038254      -65.079969      0.46      245.02
       1189        594.5             0.02               245.26    0.050097      -65.088699      -65.038602      -65.080109      0.12      248.97
       1190        595.0             0.02               268.16    0.054774      -65.092968      -65.038194      -65.080240     -0.20      253.54
       1191        595.5             0.02               282.35    0.057674      -65.095888      -65.038215      -65.080295     -0.34      258.70
       1192        596.0             0.02               284.43    0.058097      -65.096398      -65.038301      -65.080278     -0.30      264.31
       1193        596.5             0.02               273.34    0.055833      -65.094640      -65.038808      -65.080215     -0.14      270.20
       1194        597.0             0.02               260.52    0.053213      -65.091579      -65.038366      -65.080131      0.06      276.22
       1195        597.5             0.02               249.78    0.051021      -65.088501      -65.037480      -65.080046      0.27      282.26
       1196        598.0             0.02               241.27    0.049282      -65.086694      -65.037413      -65.079986      0.42      288.22
       1197        598.5             0.02               246.32    0.050314      -65.087076      -65.036762      -65.079984      0.42      293.90
       1198        599.0             0.02               255.49    0.052186      -65.089662      -65.037476      -65.080051      0.26      299.24
       1199        599.5             0.02               276.28    0.056432      -65.093427      -65.036995      -65.080151      0.01      304.07
       1200        600.0             0.02               296.49    0.060560      -65.096896      -65.036335      -65.080233     -0.19      308.39
------------|------------|------|---------|---------|----------|-----------|---------------|---------------|---------------|---------|-------------
       Step |  Sim. Time | Iter |  t_Ener |  t_Grad |     Temp |     E_Kin |         E_Pot |         E_Tot |      Cons.Qty | E.Drift | Av.Press.
            |       [fs] |      |     [s] |     [s] |      [K] | [Hartree] |     [Hartree] |     [Hartree] |     [Hartree] |     [K] |     [bar]


Finished MD run of 1000 steps.


The average temperature during this run was 249.55453 K.


Smallest interatomic distance from active region: 0.929141 Angstrom (atoms 16 - 17).


>>> Invariance Statistics >>>

    The maximal deviation of the gradient from translational invariance was 2.933e-11 kJ mol^-1 Angstrom^-1.
    This would introduce a center of mass drift of 0.000 Kelvin within 1.0 ps.

    The maximal deviation of the gradient from rotational invariance (torque) was 8.099e+00 kJ mol^-1 rad^-1.
    This would introduce an overall rotation of 0.043 Kelvin within 1.0 ps.

<<< Invariance Statistics <<<


### System Geometry ###

  * Region "All" = "Active" = "QM":
      Bounding box: from (   -4.991 |   -2.649 |   -3.638 )
                      to (    6.170 |    3.854 |    2.849 ) Angstrom
      System extent:     (   11.161 |    6.503 |    6.487 ) Angstrom
      Center of mass:    (   -0.259 |    0.074 |   -0.229 ) Angstrom

      Angular momentum:  (  -0.08191961 |  -0.05950898 |  -0.00690228 ) a.m.u. Angstrom^2 fs^-1
      Angular velocity:  (  -0.00006413 |  -0.00001984 |  -0.00000285 ) fs^-1
      Moment of inertia: (      1226.61 |       169.44 |       -37.41 )
                         (       169.44 |      2432.83 |       134.16 ) a.m.u. Angstrom^2
                         (       -37.41 |       134.16 |      2331.20 )
      Singular values:   (      1200.52 |      2536.60 |      2253.53 ) a.m.u. Angstrom^2



Thermostat Summary:
  (*) Region "All": Injected 116.40 kJ mol^-1 of energy into the system (equivalent to 217.04 K).


>>> Timing data >>>
    MD loop was running for 24.860 seconds
    Performance: 0.025 seconds/step, 72405.564 fs/hour.
    Time spent within the MD module (overhead): 0.273 seconds (1.0995 % of total time).
<<< Timing data <<<


Finished MD loop.

-------------------------------------------------------------------------------------------

#######################################################################
########        Finished Executing Input Script (SAN-VM)       ########
#######################################################################

    Total execution time: 24.860 seconds

            50 instructions executed
            19 function calls


Timings for individual modules during the MD run:

XTB module                        ...       24.368 sec (=   0.406 min)  97.3 %
ORCA initialization               ...        0.342 sec (=   0.006 min)   1.4 %
Self time inside of MD module     ...        0.324 sec (=   0.005 min)   1.3 %
------------------------------------------------------------------------------
Sum of individual times           ...       25.034 sec (=   0.417 min) 100.0 %

Total wall time of MD module      ...       25.203 sec (=   0.420 min)
             --> "dark time"      ...        0.168 sec (=   0.003 min)   0.7 %

( The "dark time" is spent in the ORCA-internal routines for energy and gradient calculation,
  but not inside of the sub-programs which do so. It contains operating system overhead for
  spawning new processes in each MD step and some file I/O time. )



    ###########################################################
    ####     ORCA ab initio Molecular Dynamics leaving     ####
    ####     Scriptable Nuclear Dynamics (SANdy) + ORCA    ####
    ####           (c) Martin Brehm, 2016 - 2025           ####
    ####           https://sanscript.org/orcamd            ####
    ###########################################################


-------------------------------------------------------------------------------------------


--------------------------------
SUGGESTED CITATIONS FOR THIS RUN
--------------------------------

Below you find a list of papers that are relevant to this ORCA run
We neither can nor want to force you to cite these papers, but we appreciate if you do
You receive ORCA, which is the product of decades of hard work by many enthusiastic individuals, for free
The only thing we kindly ask in return is that you cite our papers,
We deeply appreciate it, if you show your appreciation for ORCA by not just citing the generic ORCA reference.

Please note that relegating all ORCA citations to the supporting information does *not* help us.
SI sections are not indexed - citations you put there will not count into any citation statistics
But we need these citations in order to attract the funding resources that allow us to do what we are doing

Therefore, if you are a happy ORCA user, please consider citing a few of the papers listed below in the main body of your paper

In addition to the list printed below, the program has created the file zn_parede.bibtex that contains the list in bibtex format
You can import this file easily into all common literature databanks and citation aid programs

It goes without saying that in many instances, there are alternative algorithms to achieve similar
results as the ones you have gotten from ORCA. It is, of course, also the case that in some instances
ORCA just re-implements algorithms worked out by others. We are fully aware of that and we are also
fully appreciative of our colleagues work. Hence this citation list should not be read as indicating
that the listed papers, which are focused on our own work, are the only ones worth citing. It simply
meant to make it easier for users to cite ORCA specific papers. It is not a substitute for doing your
own literature research and citing the relevant literature in a scientifically appropriate manner.

List of essential papers. We consider these as the minimum necessary citations

  1. Bannwarth, C.; Ehlert, S.; Grimme, S.
     GFN2-xTB—An Accurate and Broadly Parametrized Self-Consistent Tight-Binding Quantum Chemical Method with Multipole Electrostatics and Density-Dependent Dispersion Contributions
     J. Chem. Theory Comput. 2019 15(3), 1652-1671
     doi.org/10.1021/acs.jctc.8b01176
  2. Neese, F.
     Software update: the ORCA program system, version 6.0
     WIRES Comput. Molec. Sci. 2025 15(1), e70019
     doi.org/10.1002/wcms.70019

List of papers to cite with high priority. The work reported in these papers was absolutely
necessary for this run to complete.
Our perspective: the developers of density functionals and basis sets usually get cited in chemistry papers
Good! But without the algorithms to do something with them, the functionals or basis sets would not do anything.
Hence, in our opinion, the algorithm design and method developments papers are equally worthy of getting cited

  1. Bannwarth, C.; Caldeweyher, E.; Ehlert, S.; Hansen, A.; Pracht, P.; Seibert, J.; Spicher, S.; Grimme, S.
     Extended tight-binding quantum chemistry methods
     WIRES Comput. Molec. Sci. 2020 11(2), e1493
     doi.org/10.1002/wcms.1493

List of suggested additional citations. These are papers that are important in the 'surrounding' of 
of this run, or papers that preceded the highly important papers. If you like your results we are grateful for a citation.

  1. Neese, F.
     The ORCA program system
     WIRES Comput. Molec. Sci. 2012 2(1), 73-78
     doi.org/10.1002/wcms.81
  2. Neese, F.
     Software update: the ORCA program system, version 4.0
     WIRES Comput. Molec. Sci. 2018 8(1), 1-6
     doi.org/10.1002/wcms.1327
  3. Neese, F.; Wennmohs, F.; Becker, U.; Riplinger, C.
     The ORCA quantum chemistry program package
     J. Chem. Phys. 2020 152(22), 224108
     doi.org/10.1063/5.0004608
  4. Neese, F.
     Software update: The ORCA program system—Version 5.0
     WIRES Comput. Molec. Sci. 2022 12(1), e1606
     doi.org/10.1002/wcms.1606

List of optional additional citations

  1. Neese, F.
     Approximate second-order SCF convergence for spin unrestricted wavefunctions
     Chem. Phys. Lett. 2000 325(1-3), 93-98
     doi.org/10.1016/s0009-2614(00)00662-x

Timings for individual modules:

Sum of individual times          ...       25.335 sec (=   0.422 min)
Molecular Dynamics run           ...       25.335 sec (=   0.422 min) 100.0 %
                             ****ORCA TERMINATED NORMALLY****
TOTAL RUN TIME: 0 days 0 hours 0 minutes 25 seconds 979 msec
