6
Coordinates from ORCA-job preparar_dimero_b97 E -152.804412861583
  O          -0.07963526387957     -0.01964165075209     -0.00000000264085
  H           0.88823357664041      0.04103734930643      0.00000002901791
  H          -0.37106168405382      0.89703962065287     -0.00000002440793
  O           2.88291572564215      0.11999069039073     -0.00000000005029
  H           3.28977384105638      0.54578697932583      0.76197145433409
  H           3.28977380459444      0.54578701107623     -0.76197145625293
