6
Retained checkpoint at 2000 fs
O         -0.07532010949946         -0.26603136268653          0.09739361101844
H          0.85113641423827         -0.04429328125872          0.04385345247096
H         -0.21368341530966         -0.94182147577002          0.76582175043528
O          2.88080692760671          0.54142207525021         -0.15109904634549
H          3.11414275018419         -0.19048494908867         -0.66277716895276
H          3.31010467974080          0.42798508237638          0.70551587423028
