61
Zn +20H2O; SOLVATOR stochastic then rigid radial translation +0.8 A per water; no optimization
Zn 0.000000000000 0.000000000000 0.000000000000
O 0.555922824394 3.361864876730 -0.749550543529
H 0.848992725669 3.272555950946 -1.663605253468
H 1.227492237545 3.928136335538 -0.352444485045
O 0.907336483050 -0.504818746404 -3.250720903823
H 0.372796938523 -0.206358303924 -3.995402650364
H 1.795489729954 -0.206358303615 -3.477584822347
O -1.941213164387 -1.746900323706 2.016141991644
H -1.916743736919 -1.911826479869 2.965648534093
H -2.295243248466 -2.567406864723 1.654487765706
O -0.507316049519 -3.421046497298 -0.025926027498
H 0.014622933538 -3.536888594850 -0.828124488241
H 0.124579111423 -3.596393902415 0.680702486305
O 1.509655722563 1.048345337380 2.587898760688
H 1.207217059541 0.569589208327 3.368081744367
H 2.158513920841 1.667444310423 2.941539204539
O -3.179388747899 -0.368313004839 -1.535925312285
H -3.174760976902 -0.147072510254 -2.474218065807
H -4.108180039360 -0.287762796647 -1.290526729791
O 2.436122861745 -2.169349443097 -0.862006720971
H 2.984633805154 -2.837670423323 -0.435573987271
H 3.078115465096 -1.590244370837 -1.288439454175
O -3.581610018565 1.394715908999 0.717596977793
H -3.908410896291 2.057842786491 1.336326316589
H -4.169680983881 1.485741097647 -0.040854746582
O 3.637584021629 2.479532131035 -0.176639434438
H 3.259614023317 2.965671619972 -0.918373309687
H 3.203043415082 2.867688453473 0.591391290232
O -0.318471094804 3.397453833453 2.638276467646
H -0.684599778044 2.505651515204 2.637586182034
H -0.591118119047 3.753077567459 1.784720714689
O 4.239424624396 -0.031697738997 1.730865250130
H 4.571843667201 -0.873119196178 1.397894417478
H 3.848475987020 0.379790378174 0.951635658941
O -3.013388276393 4.016291079013 -0.163874444807
H -2.963420352655 3.821383025167 -1.106676715256
H -2.098459505797 3.940269156923 0.130214105665
O 0.416257787868 -2.118763425535 4.083713353440
H 1.076077030207 -2.765576519626 3.808697985193
H 0.480144740629 -2.127488842692 5.045588806805
O -1.202708339562 0.386551986140 4.133001633399
H -1.787727240414 0.580944264210 4.874167331399
H -1.808748088520 0.273630351846 3.391835936260
O -2.431405977003 -1.869764539336 -3.794942330087
H -2.729866419483 -2.386713189762 -4.551941353282
H -2.729866419792 -2.386713190296 -3.037943307773
O -3.349936993776 2.137377947889 -2.498515974724
H -4.154747599743 2.017352761505 -3.015464625150
H -2.843586831207 2.774351784526 -3.015464625684
O 2.462156908433 -3.422949350182 -3.072960718529
H 3.343771192520 -3.593286284558 -3.423822011495
H 1.936091410309 -4.150626138290 -3.423822011857
O 2.260858093917 -3.935689779744 2.073682044161
H 2.389641847235 -4.550601312333 1.342477137182
H 2.728995225671 -4.354675548654 2.804886950289
O 3.080988711794 1.675100711530 -3.442321417927
H 3.947612499314 1.662139096174 -3.864408223515
H 2.636451730842 2.419138119306 -3.864408223951
O 1.118154798626 5.105776129341 -2.329383480226
H 0.313344192660 5.622724779767 -2.449408666610
H 1.624504961196 5.622724780301 -1.692409643589
