25
Constructed [Zn(en)(H2O)4]2+ seed; Zn0 N1 N4 O13 O16 O19 O22; not optimized
Zn  0.0000000000  0.0000000000  0.0000000000
N   0.0839498285 -0.7075633493  2.0814193554
C  -0.7511755493 -1.9140866135  2.0698583780
C  -2.0213584890 -1.7138075447  1.2207837410
N  -1.6916228495 -1.3957145479 -0.1743359859
H   0.4318629966 -0.5509624515  1.1351665335
H  -0.5624247552  0.0781258901  2.2201420263
H  -0.1728535366 -2.7631970951  1.6916655321
H  -1.0358857167 -2.1420032397  3.1031382729
H  -2.6309402811 -0.9121965384  1.6509198254
H  -2.6180919858 -2.6325576889  1.2328126411
H  -2.5538634823 -1.2072663456 -0.6848791533
H  -1.1531492143 -0.5292279085 -0.1985520524
O  -0.0820418778  0.6914823641 -2.0341143700
H  -0.7003279296  0.4181846849 -2.7297656741
H   0.4909226561  1.3467682559 -2.4621471292
O   1.6696823066  1.3015225993  0.3750998780
H   2.1015979075  1.9076880159 -0.2469229523
H   2.1601314588  1.4143434030  1.2043351253
O   1.3520096617 -1.5653725000 -0.5866675473
H   1.2641393354 -2.1765308671 -1.3347746627
H   2.1867562366 -1.8189561341 -0.1626469155
O  -1.3520096617  1.5653725000  0.5866675473
H  -2.1867562366  1.8189561341  0.1626469155
H  -1.2641393354  2.1765308671  1.3347746627
