61
# ORCA AIMD Velocity Step 0, t=0.00 fs, E_Pot=-266623.49120164 kJ mol^-1, Unit is Angstrom fs^-1
Zn      0.0003737979     -0.0020822737      0.0004913276
 O     -0.0003963393      0.0010555304     -0.0033138377
 H     -0.0141586315     -0.0083739493     -0.0279450722
 H      0.0080635967      0.0245398690      0.0166628409
 O     -0.0092248768      0.0024896751     -0.0007489758
 H      0.0064243982      0.0093524596      0.0122301947
 H     -0.0079291071     -0.0097427828      0.0398173160
 O      0.0039675874      0.0000114179     -0.0002696481
 H      0.0089443308     -0.0030672778      0.0274177588
 H      0.0007217764      0.0279492772     -0.0005045268
 O     -0.0044961574     -0.0044406691     -0.0036331887
 H     -0.0144370725      0.0175447078      0.0016055393
 H      0.0202898952      0.0035385258     -0.0227136560
 O     -0.0014823845     -0.0017154820      0.0022070022
 H      0.0285526659      0.0100940497      0.0236068881
 H     -0.0046906059      0.0040081283      0.0211838263
 O      0.0036553915      0.0017439874     -0.0014400472
 H     -0.0076831750     -0.0211856554      0.0188064586
 H      0.0170321637     -0.0030005994     -0.0146295856
 O      0.0010500068      0.0070850585     -0.0068161566
 H     -0.0058747982     -0.0123365597     -0.0266215187
 H      0.0087068144      0.0366083009      0.0032361967
 O      0.0003547204     -0.0010408786     -0.0006940760
 H     -0.0025774277     -0.0080458463      0.0066446316
 H      0.0223922810      0.0013327644      0.0041842995
 O      0.0069234333      0.0018308126      0.0028752503
 H     -0.0094158240     -0.0164394818     -0.0245080429
 H     -0.0211821911      0.0106193093     -0.0160849282
 O      0.0032264787      0.0095806050     -0.0016262215
 H      0.0031979417      0.0109712539      0.0226201172
 H     -0.0011071019     -0.0132556137     -0.0210590641
 O      0.0023751620      0.0033426353      0.0041763067
 H     -0.0151379400     -0.0046161910      0.0274856619
 H      0.0049589427      0.0039393990     -0.0032451490
 O     -0.0043773453      0.0002164973     -0.0013530800
 H      0.0014954300      0.0055960269     -0.0034323570
 H     -0.0039280861     -0.0154267468     -0.0031786727
 O      0.0019711656     -0.0062520334     -0.0029893737
 H     -0.0263210793     -0.0020348439      0.0373523232
 H     -0.0084351471      0.0143015842     -0.0182527899
 O     -0.0003330114     -0.0044550991     -0.0057061898
 H     -0.0063169297     -0.0072525554     -0.0045618436
 H      0.0210214131     -0.0043506183     -0.0185921480
 O     -0.0037828622     -0.0017732991      0.0049130999
 H     -0.0084637208      0.0274153497      0.0060100779
 H      0.0089588874      0.0333825534      0.0042870905
 O     -0.0018360269     -0.0008676657     -0.0020799146
 H      0.0054166578     -0.0089647373      0.0264546044
 H      0.0471707702      0.0032661674      0.0029662630
 O      0.0029062243     -0.0000276378     -0.0023654124
 H      0.0036533508     -0.0106654775     -0.0079233512
 H     -0.0058895998      0.0314333822     -0.0145552035
 O     -0.0020619007     -0.0028245906      0.0076288675
 H     -0.0147407777      0.0063492097     -0.0057187347
 H     -0.0126747284      0.0065767854      0.0195156217
 O      0.0019977163     -0.0052791531      0.0062207016
 H     -0.0125548651     -0.0191083568     -0.0118064633
 H     -0.0211945792     -0.0095228608     -0.0069386331
 O     -0.0029212903      0.0039760117     -0.0025227564
 H     -0.0053729001     -0.0137431087      0.0116362007
 H      0.0282710278     -0.0047789437      0.0063175397
61
# ORCA AIMD Velocity Step 2000, t=500.00 fs, E_Pot=-267158.95856392 kJ mol^-1, Unit is Angstrom fs^-1
Zn      0.0024464106     -0.0011784055     -0.0033627035
 O     -0.0017533814     -0.0064987691     -0.0045720561
 H     -0.0135021284     -0.0283056335     -0.0172766401
 H     -0.0113293873     -0.0203097521      0.0052047742
 O      0.0016467634     -0.0023528503      0.0071582338
 H     -0.0058062277     -0.0174844901      0.0306852819
 H     -0.0227661184     -0.0030955144     -0.0283643426
 O      0.0052652800     -0.0005436367      0.0020855575
 H      0.0125420626     -0.0309058908      0.0126632633
 H      0.0196672743     -0.0119049016      0.0246386634
 O      0.0060190453     -0.0064400630     -0.0012586955
 H     -0.0051123685     -0.0133018985      0.0068045101
 H      0.0182224397     -0.0103612033      0.0039668532
 O     -0.0041152283      0.0026359560     -0.0094788738
 H      0.0084570809      0.0085140276      0.0089295451
 H      0.0099942980     -0.0272332574      0.0087997277
 O      0.0027254412      0.0016067145      0.0049522890
 H      0.0238759572     -0.0072426917     -0.0071551712
 H     -0.0067174368     -0.0065839623      0.0250620190
 O     -0.0071108080      0.0064972506      0.0044348944
 H     -0.0155836416     -0.0237863044     -0.0198673723
 H      0.0210176255      0.0279421976      0.0131066367
 O     -0.0103898415     -0.0046859648      0.0006756587
 H     -0.0088162102     -0.0057197527      0.0092640529
 H     -0.0169519536     -0.0180966311      0.0099011621
 O     -0.0040213765     -0.0036946272      0.0017608249
 H     -0.0185962734     -0.0138767259     -0.0031910157
 H      0.0177249232     -0.0247951342     -0.0218694306
 O      0.0062695170      0.0037166075      0.0022468372
 H      0.0146851616     -0.0317498164     -0.0081432563
 H      0.0240136657      0.0158615284      0.0115360170
 O     -0.0029770480     -0.0012022456     -0.0032322761
 H     -0.0059070907      0.0062970027     -0.0120732512
 H      0.0044598318      0.0115929437     -0.0079214863
 O      0.0014730323     -0.0098681024      0.0010304124
 H     -0.0007382691     -0.0189587956      0.0199129145
 H     -0.0091446663      0.0015477626      0.0033331642
 O     -0.0036450832      0.0018493500     -0.0030045032
 H      0.0000286691      0.0030632853      0.0018663765
 H      0.0079314256      0.0174641844     -0.0142227100
 O      0.0070828757     -0.0021814317     -0.0107567462
 H      0.0155655256     -0.0193269494     -0.0139148613
 H      0.0122869859     -0.0023733924     -0.0274159269
 O      0.0029630567      0.0034349858      0.0024411170
 H     -0.0071053203      0.0093913275      0.0116390879
 H     -0.0093768260      0.0186530908      0.0140729811
 O      0.0000077106     -0.0053470738      0.0000418191
 H      0.0224150113      0.0048131170      0.0215739509
 H      0.0324504189      0.0077445359      0.0316378919
 O     -0.0031084286      0.0036093076      0.0026192831
 H     -0.0070621914      0.0035436085     -0.0082995705
 H      0.0049722065     -0.0065508627      0.0080123419
 O     -0.0022689582     -0.0053813512     -0.0017489232
 H     -0.0078882977     -0.0078660715     -0.0168038028
 H      0.0024167774     -0.0026489709     -0.0168612150
 O      0.0046343804     -0.0008832035     -0.0034518634
 H     -0.0100891222     -0.0032107568      0.0129308763
 H      0.0087495643     -0.0026624831      0.0096768673
 O     -0.0001279962     -0.0061458121      0.0015257440
 H      0.0226350585      0.0012338139      0.0206010087
 H     -0.0097012047     -0.0021839516     -0.0087600277
61
# ORCA AIMD Velocity Step 4000, t=1000.00 fs, E_Pot=-267179.69968509 kJ mol^-1, Unit is Angstrom fs^-1
Zn      0.0001091077      0.0038899021     -0.0026299770
 O      0.0025612631     -0.0062718527      0.0067150658
 H     -0.0212765083     -0.0018665461      0.0191905792
 H     -0.0018019533     -0.0205894439     -0.0112355817
 O      0.0044771668      0.0018077153     -0.0098936866
 H     -0.0027327214     -0.0011131778     -0.0160526087
 H     -0.0082391519      0.0022353203     -0.0081654890
 O     -0.0053089350      0.0030080616     -0.0014217250
 H     -0.0189487464     -0.0055835368     -0.0099500476
 H     -0.0184423407      0.0034887004      0.0101395369
 O     -0.0074532114      0.0026030195     -0.0031760680
 H      0.0197210452      0.0043258924      0.0009318989
 H     -0.0251276023      0.0121609940      0.0112471435
 O     -0.0002801426     -0.0095635937      0.0041119150
 H     -0.0210310964      0.0103405478     -0.0054939277
 H      0.0235341939      0.0041145061     -0.0212711867
 O      0.0020082865     -0.0026822787      0.0018951689
 H     -0.0243735807      0.0054230212     -0.0010756294
 H     -0.0023718582      0.0062011749      0.0076647139
 O      0.0008487223     -0.0056701597      0.0010640647
 H     -0.0290647561     -0.0006793790     -0.0281622885
 H     -0.0098237866     -0.0022231945     -0.0187093533
 O      0.0081387479     -0.0067753319     -0.0063866533
 H      0.0140120125     -0.0096264369     -0.0277391507
 H     -0.0128923734     -0.0166351927     -0.0013004835
 O      0.0017281564     -0.0056455134     -0.0034156475
 H      0.0233243546     -0.0229897844      0.0224128690
 H     -0.0073090915      0.0125901244     -0.0175054038
 O      0.0014905550     -0.0024147789     -0.0085660213
 H      0.0157687579     -0.0059944469     -0.0164761391
 H     -0.0155690429     -0.0196371085      0.0090853052
 O     -0.0021816196     -0.0029959849     -0.0025556725
 H     -0.0073315467     -0.0203722325     -0.0038486266
 H     -0.0022715558      0.0128314672      0.0036974202
 O     -0.0065638328     -0.0008179502      0.0011003064
 H      0.0077232526     -0.0030355506      0.0174052544
 H      0.0166884811     -0.0091174229      0.0217215830
 O     -0.0022630716     -0.0018458822      0.0061649014
 H      0.0079130059     -0.0024738632      0.0005235574
 H     -0.0274879418     -0.0398605813      0.0097633627
 O     -0.0034337442     -0.0016333783      0.0011119188
 H      0.0191815680      0.0017699607      0.0113204357
 H     -0.0059012358      0.0152297897     -0.0002820207
 O      0.0074818975     -0.0012052192      0.0084251829
 H     -0.0149405980     -0.0048435157     -0.0004623791
 H     -0.0202636281     -0.0060652974     -0.0058403521
 O      0.0068847282     -0.0076615694     -0.0024761613
 H      0.0325657328      0.0033656313      0.0160496718
 H      0.0048920509     -0.0034902268      0.0062072413
 O      0.0027612371     -0.0030595041     -0.0037856209
 H      0.0093853776      0.0026075047     -0.0139614869
 H     -0.0107854231      0.0015141114     -0.0263560826
 O     -0.0035396078     -0.0054555868     -0.0003731922
 H      0.0167966732     -0.0112567276      0.0087804336
 H     -0.0172807849      0.0185351294      0.0084933742
 O     -0.0015240296     -0.0054243078      0.0008252869
 H     -0.0054903223     -0.0028423145      0.0144234176
 H      0.0071033142     -0.0334943741      0.0147486827
 O     -0.0026813725      0.0044246630     -0.0026415860
 H      0.0179906383      0.0031306035     -0.0090950529
 H     -0.0092432077      0.0021093571      0.0037628161
