3
# ORCA AIMD Velocity Step 0, t=0.00 fs, E_Pot=-13312.46547041 kJ mol^-1, Unit is Angstrom fs^-1
 O      0.0000000000     -0.0009351434      0.0036414462
 H     -0.0000000000      0.0163040134     -0.0232182298
 H     -0.0000000000     -0.0014613943     -0.0345788904
3
# ORCA AIMD Velocity Step 1, t=0.50 fs, E_Pot=-13312.50904257 kJ mol^-1, Unit is Angstrom fs^-1
 O      0.0000000000     -0.0008911652      0.0036670750
 H     -0.0000000000      0.0165440647     -0.0236765465
 H     -0.0000000000     -0.0023994688     -0.0345273545
3
# ORCA AIMD Velocity Step 2, t=1.00 fs, E_Pot=-13311.74649106 kJ mol^-1, Unit is Angstrom fs^-1
 O      0.0000000000     -0.0007099831      0.0034957539
 H     -0.0000000000      0.0161902000     -0.0233620673
 H     -0.0000000000     -0.0049213315     -0.0321226214
3
# ORCA AIMD Velocity Step 3, t=1.50 fs, E_Pot=-13310.51161459 kJ mol^-1, Unit is Angstrom fs^-1
 O      0.0000000000     -0.0004330712      0.0032370969
 H     -0.0000000000      0.0157328400     -0.0228576517
 H     -0.0000000000     -0.0088591231     -0.0285216281
3
# ORCA AIMD Velocity Step 4, t=2.00 fs, E_Pot=-13309.23579165 kJ mol^-1, Unit is Angstrom fs^-1
 O      0.0000000000     -0.0000880090      0.0029814005
 H     -0.0000000000      0.0154940286     -0.0226858289
 H     -0.0000000000     -0.0140971476     -0.0246350309
