
                                 *****************
                                 * O   R   C   A *
                                 *****************

                                            #,                                       
                                            ###                                      
                                            ####                                     
                                            #####                                    
                                            ######                                   
                                           ########,                                 
                                     ,,################,,,,,                         
                               ,,#################################,,                 
                          ,,##########################################,,             
                       ,#########################################, ''#####,          
                    ,#############################################,,   '####,        
                  ,##################################################,,,,####,       
                ,###########''''           ''''###############################       
              ,#####''   ,,,,##########,,,,          '''####'''          '####       
            ,##' ,,,,###########################,,,                        '##       
           ' ,,###''''                  '''############,,,                           
         ,,##''                                '''############,,,,        ,,,,,,###''
      ,#''                                            '''#######################'''  
     '                                                          ''''####''''         
             ,#######,   #######,   ,#######,      ##                                
            ,#'     '#,  ##    ##  ,#'     '#,    #''#        ,####,    ,#,          
            ##       ##  ##   ,#'  ##            #'  '#       #'       ,# #          
            ##       ##  #######   ##           ,######,      #####,      #          
            '#,     ,#'  ##    ##  '#,     ,#' ,#      #,     #,   #      #          
             '#######'   ##     ##  '#######'  #'      '#     '####' #    #          



                #########################################################
                #                        -***-                          #
                #          Department of theory and spectroscopy        #
                #                                                       #
                #                      Frank Neese                      #
                #                                                       #
                #     Directorship, Architecture, Infrastructure        #
                #                    SHARK, DRIVERS                     #
                #        Core code/Algorithms in most modules           #
                #                                                       #
                #        Max Planck Institute fuer Kohlenforschung      #
                #                Kaiser Wilhelm Platz 1                 #
                #                 D-45470 Muelheim/Ruhr                 #
                #                      Germany                          #
                #                                                       #
                #                  All rights reserved                  #
                #                        -***-                          #
                #########################################################


                         Program Version 6.1.1  -  RELEASE   -
                                (GIT: $487d211c$)
                          ($2025-11-21 10:33:24 +0100$)


 With contributions from (in alphabetic order):
[Max-Planck-Institut fuer Kohlenforschung]                               
  Daniel Aravena         : Magnetic Suceptibility                        
  Michael Atanasov       : Ab Initio Ligand Field Theory (pilot matlab implementation)
  Alexander A. Auer      : GIAO ZORA, VPT2 properties, NMR spectrum      
  Ute Becker             : All parallelization in ORCA, NUMFREQ, NUMCALC 
  Giovanni Bistoni       : ED, misc. LED, open-shell LED, HFLD           
  Dmytro Bykov           : pre 5.0 version of the SCF Hessian            
  Marcos Casanova-Páez   : Triplet and SCS-CIS(D). UHF-(DLPNO)-IP/EA/STEOM-CCSD. UHF-CVS-IP/STEOM-CCSD   
  Vijay G. Chilkuri      : MRCI spin determinant printing, contributions to CSF-ICE 
  Pauline Colinet        : FMM embedding                                 
  Dipayan Datta          : RHF DLPNO-CCSD density                        
  Achintya Kumar Dutta   : EOM-CC, STEOM-CC                              
  Nicolas Foglia         : Exact transition moments, OPA infrastructure, MCD improvements    
  Dmitry Ganyushin       : Spin-Orbit,Spin-Spin,Magnetic field MRCI      
  Miquel Garcia-Rates    : C-PCM and meta-GGA Hessian, CCSD/C-PCM, Gaussian charge scheme 
  Tiago L. C. Gouveia    : GS-ROHF, GS-ROCIS                             
  Yang Guo               : DLPNO-NEVPT2, F12-NEVPT2, CIM, IAO-localization        
  Andreas Hansen         : Spin unrestricted coupled pair/coupled cluster methods 
  Ingolf Harden          : AUTO-CI MPn and infrastructure                
  Benjamin Helmich-Paris : MC-RPA, TRAH-(SCF,CASSCF), AVAS, COSX integrals, SCF dyn. polar., MC-PDFT, srDFT 
  Lee Huntington         : MR-EOM, pCC                                   
  Robert Izsak           : Overlap fitted RIJCOSX, COSX-SCS-MP3, EOM     
  Riya Kayal             : Wick's Theorem for AUTO-CI, AUTO-CI UHF-CCSDT 
  Emily Kempfer          : AUTO-CI RHF CISDT and CCSDT, approximate NEVPT4
  Christian Kollmar      : KDIIS, OOCD, Brueckner-CCSD(T), CCSD density, CASPT2, CASPT2-K, improved NEVPT2 
  Axel Koslowski         : Symmetry handling                             
  Simone Kossmann        : meta-GGA functionals, TD-DFT gradient, OOMP2, (MP2 Hessian; deprecated post 5.0) 
  Lucas Lang             : DCDCAS, Hyperfine gauge corrections, ICE-SOC+SSC
  Marvin Lechner         : AUTO-CI (C++ implementation), FIC-MRCC        
  Spencer Leger          : CASSCF response                               
  Dagmar Lenk            : GEPOL surface, SMD, ORCA-2-JSON               
  Dimitrios Liakos       : Extrapolation schemes; Compound Job, Property file
  Dimitrios Manganas     : Further ROCIS development; embedding schemes. LFT, Crystal Embedding 
  Dimitrios Pantazis     : SARC Basis sets                               
  Anastasios Papadopoulos: AUTO-CI, single reference methods and gradients 
  Taras Petrenko         : pre 6.0 DFT Hessian and TD-DFT gradient,  ECA, NRVS 
  Petra Pikulova         : Analytic Raman intensities                    
  Peter Pinski           : DLPNO-MP2, DLPNO-MP2 Gradient                 
  Shashank Vittal Rao    : ES-AILFT, MagRelax                            
  Christoph Reimann      : Effective Core Potentials                     
  Marius Retegan         : Local ZFS, SOC                                
  Christoph Riplinger    : Optimizer, TS searches, QM/MM, DLPNO-CCSD(T), (RO)-DLPNO pert. Triples 
  Michael Roemelt        : Original ROCIS implementation, recursive CI coupling coefficients
  Masaaki Saitow         : Open-shell DLPNO-CCSD energy and density      
  Barbara Sandhoefer     : DKH picture change effects                    
  Yorick L. A. Schmerwitz: GMF and freeze-and-release deltaSCF, NEB S-IDPP initial path                    
  Kantharuban Sivalingam : CASSCF convergence/infrastructure, NEVPT2, NEVPT3, NEVPT4(SD), FIC-MRCI and CEPA variants
  Bernardo de Souza      : ESD, SOC TD-DFT                               
  Georgi L. Stoychev     : AutoAux, RI-MP2 NMR, DLPNO-MP2 response, X2C  
  Van Anh Tran           : RI-MP2 g-tensors                              
  Willem Van den Heuvel  : Paramagnetic NMR                              
  Zikuan Wang            : NOTCH, Electric field optimization            
  Frank Wennmohs         : Technical directorship and infrastructure     
  Hang Xu                : AUTO-CI-Response properties                   
                                                                         
[FACCTs GmbH]                                                            
  Markus Bursch, Nicolas Foglia, Miquel Garcia-Rates, Ingolf Harden, Hagen Neugebauer, Anastasios Papadopoulos, 
  Christoph Riplinger, Bernardo de Souza, Georgi L. Stoychev                                                    
                                                                 
  APM, various basis sets, CI-OPT, improved COSX, DLPNO-Multilevel,           
  DOCKER, DRACO, updates on ESD, Fragmentator, GOAT, IRC, LR-CPCM, L-BFGS, MBIS, meta-GGA TD-DFT gradient, ML-optimized integration grids, 
  MM, NACMEs, nearIR, NEB, NEB-TS, NL-DFT gradient (VV10), 2- and 3-layer-ONIOM, interface openCOSMO-RS, QMMM,   
  Crystal-QMMM, RESP, rigid body optimization, SF, symmetry and pop. for TD-DFT, various functionals, SOLVATOR                                   
                                                                         
[Other institutions]                                                     
  V. Asgeirsson          : NEB                                           
  Christoph Bannwarth    : sTDA-DFT, sTD-DFT, PBEh-3c, B97-3c, D3        
  Giovanni Bistoni       : ETS/NOCV, ADLD/ADEX, COVALED                  
  Martin Brehm           : Molecular dynamics                            
  Ronald Cardenas        : ETS/NOCV                                      
  Martina Colucci        : COVALED                                       
  Sebastian Ehlert       : rSCAN, r2SCAN, r2SCAN-3c, D4, dhf basis sets  
  Marvin Friede          : D4 for Fr, Ra, Ac-Lr                          
  Lars Goerigk           : TD-DFT with DH, B97 family of functionals     
  Stefan Grimme          : VdW corrections, initial TS optimization, DFT functionals, gCP, sTDA/sTD-DF 
  Waldemar Hujo          : DFT-NL                                        
  H. Jonsson             : NEB                                           
  Holger Kruse           : gCP                                           
  Marcel Mueller         : wB97X-3c, vDZP basis set                      
  Hagen Neugebauer       : wr2SCAN, Native XTB                           
  Gianluca Regni         : ADLD/ADEX                                     
  Tobias Risthaus        : pre 6.0 range-separated hybrid DFT and stability analysis
  Lukas Wittmann         : regularized MP2, r2SCAN double-hybrids, wr2SCAN        
                                                                         
We gratefully acknowledge several colleagues who have allowed us to      
interface, adapt or use parts of their codes:                            
  Ed Valeev, F. Pavosevic, A. Kumar             : LibInt (2-el integral package), F12 methods 
  Garnet Chan, S. Sharma, J. Yang, R. Olivares  : DMRG                   
  Ulf Ekstrom                                   : XCFun DFT Library      
  Mihaly Kallay                                 : mrcc  (arbitrary order and MRCC methods)
  Frank Weinhold                                : gennbo (NPA and NBO analysis)           
  Simon Mueller                                 : openCOSMO-RS                            
  Christopher J. Cramer and Donald G. Truhlar   : smd solvation model                     
  S Lehtola, MJT Oliveira, MAL Marques          : LibXC Library                           
  Liviu Ungur et al                             : ANISO software                          


 Your calculation uses the libint2 library for the computation of 2-el integrals
 For citations please refer to: http://libint.valeyev.net

 Your ORCA version has been built with support for libXC version: 7.0.0
 For citations please refer to: https://libxc.gitlab.io

 This ORCA versions uses:
   CBLAS   interface :  Fast vector & matrix operations
   LAPACKE interface :  Fast linear algebra routines
   SCALAPACK package :  Parallel linear algebra routines
   Shared memory     :  Shared parallel matrices
   BLAS/LAPACK       :  OpenBLAS 0.3.29  USE64BITINT DYNAMIC_ARCH NO_AFFINITY Haswell SINGLE_THREADED
        Core in use  :  Haswell
   Copyright (c) 2011-2014, The OpenBLAS Project


  ***********************************
  * Starting time: Tue Oct  6 08:56:45 2026
  * Host name:     NotebookAW
  * Process ID:    95285
  * Working dir.:  /home/henrique/aimd-workshop/cell-20261006/probe_properties
  ***********************************

NOTE: MaxCore=256 MB was set to SCF,MP2,MDCI,CIPSI,MRCI,RASCI and CIS
      => If you want to overwrite this, your respective input block should be placed after the MaxCore statement
Your calculation utilizes the semiempirical GFN2-xTB method
Please cite in your paper:
Bannwarth, C.; Ehlert S.; Grimme, S. J. Chem. Theory Comput. 2019, 15, 1652.
   

================================================================================

================================================================================
                                        WARNINGS
                       Please study these warnings very carefully!
================================================================================


WARNING: Gradients are needed
  ===> : At least TightSCF should be used for SCF convergence

WARNING: Found dipole moment calculation with XTB calculation
  ===> : Switching off dipole moment calculation


================================================================================
                                       INPUT FILE
================================================================================
NAME = probe_properties.inp
|  1> ! MD XTB2 PAL8
|  2> %maxcore 256
|  3> %md
|  4>  Timestep 0.5_fs
|  5>  Randomize 42
|  6>  Initvel 300_K
|  7>  Thermostat CSVR 300_K Timecon 100_fs
|  8>  Cell Sphere 0, 0, 0, 3_A Spring 10 Elastic 5_fs, 0.001 Pressure 1000
|  9>  Dump Position Stride 1 Filename "probe_properties-traj.xyz"
| 10>  Dump Velocity Stride 1 Filename "probe_properties-vel.xyz"
| 11>  Dump Force Stride 1 Filename "probe_properties-force.xyz"
| 12>  Dump Properties Stride 1 Filename "probe_properties-props"
| 13>  Run 4
| 14>  Screendump
| 15> end
| 16> * xyz 0 1
| 17> O -0.00000000000561 0.00000000000000 -0.07350969363937
| 18> H 0.00000000000281 0.76333729916205 0.51075484681968
| 19> H 0.00000000000281 -0.76333729916205 0.51075484681968
| 20> *
| 21> 
| 22>                          ****END OF INPUT****
================================================================================

-------------------------------------------------------------------------------------------

MD module early startup:
  Installed signal handlers.
  Extracted executable name.
  Initialized library credit list.
  Parsed command line without errors.
  Initialized console color.
Done.

Will write log file to "probe_properties.md.log".

Command line:  /home/henrique/bin/orca611/orca_md -orca probe_properties

-------------------------------------------------------------------------------------------


     _____    ___    _   _       _                  ______ ______  _____   ___  
    /  ___|  / _ \  | \ | |     | |           _    /  __  \| ___ \/  __ \ / _ \ 
    \ `--.  / /_\ \ |  \| |   __| | _   _   _| |_  | |  | || |_/ /| /  \// /_\ \
     `--. \ |  _  | | . ` |  / _` || | | | |_   _| | |  | ||    / | |    |  _  |
    /\__/ / | | | | | |\  | | (_| || |_| |   |_|   | \__/ || |\ \ | \__/\| | | |
    \____/  \_| |_/ \_| \_/  \__,_| \__, |          \____/ \_| \_| \____/\_| |_/
                                     __/ |                                      
                                    |___/                                       


    ####################################################################
    ########     Scriptable Nuclear Dynamics (SANdy) + ORCA     ########
    ########           (c) Martin Brehm, 2016 - 2025            ########
    ########           Paderborn University, Germany            ########
    ########           https://sanscript.org/orcamd             ########
    ####################################################################


  * Compiled as ORCA module. Called from ORCA.
  * ORCA base name: "probe_properties"
  * Source code version: Jun 07 2025, compiled at Nov 24 2025 07:23:22.
  * Enabled features: SAN_MD, SAN_INTERPRETER
  * Libraries: KISS_FFT, LBFGSBC
  * Executable name: "/home/henrique/bin/orca611/orca_md"
  * Messages are redirected, Errors are redirected, Output is redirected, Input is redirected
  * Running on NotebookAW at Tue Oct  6 08:56:46 2026 (PID 95317)
  * Running in /home/henrique/aimd-workshop/cell-20261006/probe_properties

    -----------------------------------------------

    Technical information:

  * Compiler:      LLVM, CLANG 20.1.6, "Clang 20.1.6 (/home/frankw/CompEnv/src/llvm2016/llvm-project/clang 47addd4540b4c393e478ba92bea2589e330c57fb)", Linux, __cplusplus=201103L
  * Compile host:  x86_64, Little Endian, char=8bits, int=4b, long=8b, ll=8b, addr=8b, 0x01020304=4,3,2,1.
  * Class sizes:   InputElem=248, ValuePair=112, Type=96, Value=8, VMToken=8, VMInst=8
  * Compile flags: MMX, SSE, SSE2, SSE3, SSSE3, SSE4.1, SSE4.2, POPCNT, FMA3, AVX, AVX2
  * Local machine: Intel(R) Core(TM) Ultra 9 185H (GenuineIntel), Family 6, Model 170, Stepping 4
                   1 CPU, 11 cores, 22 threads,  Uptime 1h 59m 29s
                   MMX, SSE, SSE2, SSE3, SSSE3, SSE4.1, SSE4.2, POPCNT, AES, FMA3, AVX, AVX2, SHA
                   Caches: 11x L1d (528 KiB), 11x L1i (704 KiB), 11x L2 (22 MiB), 1x L3 (24 MiB)
  * Op. System:    Ubuntu 24.04.4 LTS, Linux version 6.18.33.2-microsoft-standard-WSL2 
  * Phys. Memory:  15.38 GiB total,  14.33 GiB free
  * Stack size:    8.00 MiB


The following libraries are included:

  * KISS FFT,   Version 131.1.0 (02/2021), License: BSD 3-clause
      (c) 2003-2010 Mark Borgerding, see https://github.com/mborgerding/kissfft

  * L-BFGS-B-C, Version 3.0 (04/2011),     License: BSD 3-clause
      (c) Stephen Becker, see https://github.com/stephenbeckr/L-BFGS-B-C

  * MT19937 Pseudo Random Number Gen.,     License: Custom (permissive)
      (c) 1997-2005 Makoto Matsumoto, Takuji Nishimura, Mutsuo Saito, see https://github.com/clibs/mt19937ar


Initializing SAN engine...
  24 physical quantities and 49 units added.
  Initialized SAN language:
    97 operators, 57 keywords, 4 namespaces, 35 types, 183 flags
Done.


>>> Reading Input File >>>

Reading input file "probe_properties.mdinput" ...
  413 bytes read.
  11 lines.
Tokenizing input...
Found 61 tokens in file.
  ( 35 identifiers,  18 numeric literals,  4 string literals,  
     4 operators )
Line endings are uniform: 11 x \n

<<< Finished Reading Input File (took 0.000 seconds) <<<


Using the following settings:
  Interpret:              true
  Execution:              SAN-VM
  Parser verbose level:   1
  Execute verbose level:  2
  Syntax highlighting:    0
  Static vars:            false
  Dynamic types:          true
  Max. recursion depth:   200
  Max. nesting depth:     1000
  Max. argument count:    100
  Only parse:             false


>>> Parsing Input Script >>>

Handled 6 underscore identifiers.
Handling module imports...
  Importing module "Math" to global namespace.
  Importing module "MD" to global namespace.
Handled 2 module imports.
Handled 4 operators.
Grouped 2 commas.
Removed 2 commas.
Handled 22 variable occurrences.
Assigned 12 identifiers.
Handling functions,      iteration  1...
                         iteration  2...
                         iteration  3...
Handling "FOR" loops...
Handling AutoDecl,       iteration  1...
No auto declarations.
Assigned 17 flags, re-doing function handling...
Handling functions ( 2), iteration  1...
  Moving "Void" argument 2 ("Thermostat") of function "Initvel" up 1 levels to "ROOT".
                         iteration  2...
Handling "FOR" loops...
Handling AutoDecl,       iteration  1...
No auto declarations.
Handling functions, final pass...
  Moving "Void" argument 13 ("Dump") of function "Cell" up 1 levels to "ROOT".
Function handling done (2 macro-iterations, 0.002 seconds).
Handling keywords,       iteration  1...
Prepared 11 argument lists.
Assigned 40 read-only flags.
Assigned 53 simple VP flags.
Assigned 52 tree IDs.

Warning: The "Cell" command has been renamed to "Walls". Please adapt your input.
In probe_properties.mdinput:5:
     Cell Sphere 0, 0, 0, 3_A Spring 10 Elastic 5_fs, 0.001 Pressure 1000
     ^^^^


<<< Finished Parsing Input Script (took 0.002 seconds) <<<


SAN-VM: Compiling...
  Optimization level: Not specified. Using default ("-O2").
Done (took 0.000 seconds).


  Part              # Tokens    # Registers    # Shortcuts    # Optimizations
  ---------------------------------------------------------------------------
  Main Program            68              0              0                  0


-------------------------------------------------------------------------------------------

>>> Initializing MD engine with interface "ORCA" >>>



>>>>>>>>>>>>>>>>>>>>>>>>>>>>>>>>>>>>>>>>>>>>>>>>>>>>
>>>   Output of System Information (from ORCA)   >>>
>>>>>>>>>>>>>>>>>>>>>>>>>>>>>>>>>>>>>>>>>>>>>>>>>>>>

---------------------------------
CARTESIAN COORDINATES (ANGSTROEM)
---------------------------------
  O     -0.000000    0.000000   -0.073510
  H      0.000000    0.763337    0.510755
  H      0.000000   -0.763337    0.510755

----------------------------
CARTESIAN COORDINATES (A.U.)
----------------------------
  NO LB      ZA    FRAG     MASS         X           Y           Z
   0 O     8.0000    0    15.999   -0.000000    0.000000   -0.138913
   1 H     1.0000    0     1.008    0.000000    1.442498    0.965187
   2 H     1.0000    0     1.008    0.000000   -1.442498    0.965187

Doing XTB calculation. Basis set is not printed.

############################################
   Total Atom Count:               3
   Total System Mass:         18.015 a.m.u.
   Total Basis Dimension:          0
   Total Electron Number:          0
   Total Charge:                   0
   Total Multiplicity:             1
  ------------------------------------------
   ReducePrint:                 true
   Print Mulliken Pop:             1
   Print Loewdin Pop:              1
   Print Mayer Pop:                1
   Print Orbital Energies:         1
############################################

<<<<<<<<<<<<<<<<<<<<<<<<<<<<<<<<<<<<<<<<<<<<<<<<<<<<
<<<          End of System Information           <<<
<<<<<<<<<<<<<<<<<<<<<<<<<<<<<<<<<<<<<<<<<<<<<<<<<<<<


Initializing regions...

Defined regions:
         All:     3 atoms,     18.015 a.m.u.
          QM:   All
      Active:   All



### System Geometry ###

  * Region "All" = "Active" = "QM":
      Bounding box: from (   -0.000 |   -0.763 |   -0.074 )
                      to (    0.000 |    0.763 |    0.511 ) Angstrom
      System extent:     (    0.000 |    1.527 |    0.584 ) Angstrom
      Center of mass:    (   -0.000 |   -0.000 |   -0.008 ) Angstrom
      Total mass:            18.015 a.m.u.

      Moment of inertia: (         1.79 |         0.00 |        -0.00 )
                         (         0.00 |         0.61 |         0.00 ) a.m.u. Angstrom^2
                         (        -0.00 |         0.00 |         1.17 )
      Singular values:   (         1.79 |         1.17 |         0.61 ) a.m.u. Angstrom^2



Smallest interatomic distance from active region: 0.961275 Angstrom (atoms 0 - 1).


<<< MD engine initialization done (took 0.372 seconds) <<<


###############################################################
########        Executing Input Script (SAN-VM)        ########
###############################################################

Execution verbose level is 2.

-------------------------------------------------------------------------------------------



>>>>>> Timestep( 0.5_fs )

Setting integration time step to 0.50 fs.

The lightest element in the active region has an atomic mass of 1.008 a.m.u.
Recommending time step not larger than 0.50 .. 1.00 fs.
  --> choice seems reasonable


>>>>>> Randomize( 42 )

Initialized random number generator seed to 42.


>>>>>> Initvel( 300_K )

Old temperature of the total system is     0.000 K.

Initializing atom velocities for region "all" to 300.000 K:
  Creating Maxwell-Boltzmann distribution...
  Temperature after random initialization is 233.894 K.
  Rescaling velocities to match desired initial temperature (factor 1.132533)...
  Removing initial center of mass movement...
  Temperature after center of mass movement removal is 207.037 K.
  Removing initial angular velocity...
    Angular momentum before:  (   0.01202067 |  -0.00692739 |  -0.01537592 ) a.m.u. Angstrom^2 fs^-1
    Angular velocity before:  (   0.00673099 |  -0.01133448 |  -0.01308933 ) fs^-1
    Angular momentum after:   (  -0.00000000 |  -0.00000000 |  -0.00000000 ) a.m.u. Angstrom^2 fs^-1
    Angular velocity after:   (  -0.00000000 |  -0.00000000 |  -0.00000000 ) fs^-1
  Temperature after angular velocity removal is 158.836 K.
  Rescaling velocities to match desired initial temperature (factor 1.374316)...
Done.

New temperature of the total system is   300.000 K.


>>>>>> Thermostat( CSVR, 300_K, Timecon, 100_fs )

Switching on thermostat for region "All": Type CSVR, temperature 300.00 K, time constant 100.00 fs, global.


>>>>>> Cell( Sphere, 0, 0, 0, 3_A, Spring, 10, Elastic, 5_fs, 0.001, Pressure, 1000 )


Warning: The "Cell" command has been renamed to "Walls". Please adapt your input.
In probe_properties.mdinput:5:
     Cell Sphere 0, 0, 0, 3_A Spring 10 Elastic 5_fs, 0.001 Pressure 1000
     ^^^^


Note: In function func_Walls(): Found length value "0" without unit - assuming it is in Angstrom.
In probe_properties.mdinput:5:
     Cell Sphere 0, 0, 0, 3_A Spring 10 Elastic 5_fs, 0.001 Pressure 1000
                 ^


Note: In function func_Walls(): Found length value "0" without unit - assuming it is in Angstrom.
In probe_properties.mdinput:5:
     Cell Sphere 0, 0, 0, 3_A Spring 10 Elastic 5_fs, 0.001 Pressure 1000
                    ^


Note: In function func_Walls(): Found length value "0" without unit - assuming it is in Angstrom.
In probe_properties.mdinput:5:
     Cell Sphere 0, 0, 0, 3_A Spring 10 Elastic 5_fs, 0.001 Pressure 1000
                       ^

Switched on spherical wall with center ( 0.00 | 0.00 | 0.00 ) and radius 3.00 Angstrom.

Note: In function func_Walls(): Found spring constant value "10" without unit - assuming it is in kJ mol^-1 Angstrom^-2.
In probe_properties.mdinput:5:
     Cell Sphere 0, 0, 0, 3_A Spring 10 Elastic 5_fs, 0.001 Pressure 1000
                                     ^^

Set wall spring constant to 10.000 kJ mol^-1 Angstrom^-2.
Switched wall to elastic with t_avg = 5.0 fs and c_response = 0.00100 Angstrom bar^-1.

Note: In function func_Walls(): Found pressure value "1000" without unit - assuming it is in bar.
In probe_properties.mdinput:5:
     Cell Sphere 0, 0, 0, 3_A Spring 10 Elastic 5_fs, 0.001 Pressure 1000
                                                                     ^^^^

Set external wall pressure to 1000.00 bar (isotropic).


>>>>>> Dump( Position, Stride, 1, Filename, "probe_properties-traj.xyz" )

Modified writing position trajectory for region "all": Format XYZ, stride 1, filename "probe_properties-traj.xyz", append.


>>>>>> Dump( Velocity, Stride, 1, Filename, "probe_properties-vel.xyz" )

Switched on writing velocity trajectory for region "all": Format XYZ, stride 1, filename "probe_properties-vel.xyz", append.


>>>>>> Dump( Force, Stride, 1, Filename, "probe_properties-force.xyz" )

Switched on writing force trajectory for region "all": Format XYZ, stride 1, filename "probe_properties-force.xyz", append.


>>>>>> Dump( Properties, Stride, 1, Filename, "probe_properties-props" )


func_Dump(): Error: Unexpected value after "Stride".
In probe_properties.mdinput:9:
     Dump Properties Stride 1 Filename "probe_properties-props"
                              ^^^^^^^^


-------------------------------------------------------------------------------------------

Execution aborted by error.

    Total execution time: 0.000 seconds

            30 instructions executed
             9 function calls

orca_md aborted by error.


-------------------------------------------------------------------------------------------

ERROR       : MD Program returns an error
              cannot continue the md simulation
COMMAND     : /home/henrique/bin/orca611/orca_md -orca probe_properties 
RETURN CODE : 65280
[file orca_main/main_driver_md.cpp, line 186]: 
[file orca_main/main_driver_md.cpp, line 186]: 
