3
# ORCA AIMD Velocity Step 0, t=0.00 fs, E_Pot=-200423.98156606 kJ mol^-1, Unit is Angstrom fs^-1
 O      0.0000000000     -0.0009351434      0.0036414462
 H     -0.0000000000      0.0163040134     -0.0232182298
 H     -0.0000000000     -0.0014613943     -0.0345788904
3
# ORCA AIMD Velocity Step 1, t=0.50 fs, E_Pot=-200422.08577047 kJ mol^-1, Unit is Angstrom fs^-1
 O     -0.0000000000     -0.0008813499      0.0034453445
 H      0.0000000000      0.0175569185     -0.0219801236
 H     -0.0000000000     -0.0035681123     -0.0327044664
3
# ORCA AIMD Velocity Step 2, t=1.00 fs, E_Pot=-200419.95691302 kJ mol^-1, Unit is Angstrom fs^-1
 O      0.0000000000     -0.0006726481      0.0028540082
 H      0.0000000001      0.0189241694     -0.0185071855
 H     -0.0000000001     -0.0082478823     -0.0267917007
3
# ORCA AIMD Velocity Step 3, t=1.50 fs, E_Pot=-200418.27051302 kJ mol^-1, Unit is Angstrom fs^-1
 O      0.0000000000     -0.0003646780      0.0022259472
 H      0.0000000001      0.0197220724     -0.0152737306
 H     -0.0000000001     -0.0139338941     -0.0200565563
3
# ORCA AIMD Velocity Step 4, t=2.00 fs, E_Pot=-200417.30711392 kJ mol^-1, Unit is Angstrom fs^-1
 O     -0.0000000000      0.0000014864      0.0016501471
 H      0.0000000001      0.0202747215     -0.0127213366
 H     -0.0000000001     -0.0202983129     -0.0134698373
