3
# ORCA AIMD Force Step 0, t=0.00 fs, E_Pot=-200423.98156606 kJ mol^-1, Unit is kJ mol^-1 Angstrom^-1
 O      0.0000000000      0.0000000000      0.0000000000
 H      0.0000000000      0.0000000000      0.0000000000
 H      0.0000000000      0.0000000000      0.0000000000
3
# ORCA AIMD Force Step 1, t=0.50 fs, E_Pot=-200422.08577047 kJ mol^-1, Unit is kJ mol^-1 Angstrom^-1
 O     -0.0000002922     43.6931638189   -161.7251514842
 H      0.0000010588     38.8858709400     64.4820279449
 H     -0.0000007666    -82.5790347588     97.2431235392
3
# ORCA AIMD Force Step 2, t=1.00 fs, E_Pot=-200419.95691302 kJ mol^-1, Unit is kJ mol^-1 Angstrom^-1
 O      0.0000006007     84.9548159288   -195.8617250144
 H      0.0000008029     24.9498131979     67.0305832956
 H     -0.0000014036   -109.9046291267    128.8311417188
3
# ORCA AIMD Force Step 3, t=1.50 fs, E_Pot=-200418.27051302 kJ mol^-1, Unit is kJ mol^-1 Angstrom^-1
 O     -0.0000001256    112.7779967734   -210.0047031578
 H      0.0000003520      5.0264327616     65.0423905060
 H     -0.0000002264   -117.8044295350    144.9623126518
3
# ORCA AIMD Force Step 4, t=2.00 fs, E_Pot=-200417.30711392 kJ mol^-1, Unit is kJ mol^-1 Angstrom^-1
 O     -0.0000017187    121.5110930740   -204.5160083123
 H     -0.0000000353    -18.3769716604     60.2282192359
 H      0.0000017540   -103.1341214136    144.2877890764
