3
# ORCA AIMD Force Step 0, t=0.00 fs, E_Pot=-13312.46547041 kJ mol^-1, Unit is kJ mol^-1 Angstrom^-1
 O      0.0000000000      0.0000000000      0.0000000000
 H      0.0000000000      0.0000000000      0.0000000000
 H      0.0000000000      0.0000000000      0.0000000000
3
# ORCA AIMD Force Step 1, t=0.50 fs, E_Pot=-13312.50904257 kJ mol^-1, Unit is kJ mol^-1 Angstrom^-1
 O      0.0000000095     36.9932495703    -20.0113474486
 H     -0.0000000049     -0.6712118830     -3.6671247326
 H     -0.0000000046    -36.3220376873     23.6784721813
3
# ORCA AIMD Force Step 2, t=1.00 fs, E_Pot=-13311.74649106 kJ mol^-1, Unit is kJ mol^-1 Angstrom^-1
 O      0.0000000087     74.0245442721    -65.3458401734
 H     -0.0000000047     -6.5113833194      6.1231170843
 H     -0.0000000040    -67.5131609527     59.2227230891
3
# ORCA AIMD Force Step 3, t=1.50 fs, E_Pot=-13310.51161459 kJ mol^-1, Unit is kJ mol^-1 Angstrom^-1
 O      0.0000000080    103.5384670303   -102.8041130370
 H     -0.0000000044    -12.7316026392     15.3804471160
 H     -0.0000000036    -90.8068643911     87.4236659211
3
# ORCA AIMD Force Step 4, t=2.00 fs, E_Pot=-13309.23579165 kJ mol^-1, Unit is kJ mol^-1 Angstrom^-1
 O      0.0000000073    119.2977293082   -128.9281731683
 H     -0.0000000041    -19.1938591018     24.1933511774
 H     -0.0000000032   -100.1038702064    104.7348219909
