3
# ORCA AIMD Position Step 0, t=0.00 fs, E_Pot=-200423.98156606 kJ mol^-1, Unit is Angstrom
 O     -0.0000000000      0.0000000000     -0.0735096940
 H      0.0000000000      0.7633373026      0.5107548491
 H      0.0000000000     -0.7633373026      0.5107548491
3
# ORCA AIMD Position Step 1, t=0.50 fs, E_Pot=-200422.08577047 kJ mol^-1, Unit is Angstrom
 O     -0.0000000000     -0.0004675717     -0.0716889709
 H      0.0000000000      0.7714893093      0.4991457342
 H      0.0000000000     -0.7640679997      0.4934654039
3
# ORCA AIMD Position Step 2, t=1.00 fs, E_Pot=-200419.95691302 kJ mol^-1, Unit is Angstrom
 O     -0.0000000000     -0.0008741092     -0.0700926543
 H      0.0000000000      0.7807499842      0.4889553007
 H     -0.0000000000     -0.7668761015      0.4783190626
3
# ORCA AIMD Position Step 3, t=1.50 fs, E_Pot=-200418.27051302 kJ mol^-1, Unit is Angstrom
 O     -0.0000000000     -0.0011440582     -0.0688186767
 H      0.0000000001      0.7905214664      0.4805329404
 H     -0.0000000001     -0.7723629473      0.4665208207
3
# ORCA AIMD Position Step 4, t=2.00 fs, E_Pot=-200417.30711392 kJ mol^-1, Unit is Angstrom
 O     -0.0000000000     -0.0012382839     -0.0678697796
 H      0.0000000001      0.8004448343      0.4737026523
 H     -0.0000000001     -0.7807907627      0.4582901903
