3
# ORCA AIMD Position Step 0, t=0.00 fs, E_Pot=-13312.46547041 kJ mol^-1, Unit is Angstrom
 O     -0.0000000000      0.0000000000     -0.0735096940
 H      0.0000000000      0.7633373026      0.5107548491
 H      0.0000000000     -0.7633373026      0.5107548491
3
# ORCA AIMD Position Step 1, t=0.50 fs, E_Pot=-13312.50904257 kJ mol^-1, Unit is Angstrom
 O     -0.0000000000     -0.0004675717     -0.0716889709
 H      0.0000000000      0.7714893093      0.4991457342
 H      0.0000000000     -0.7640679997      0.4934654039
3
# ORCA AIMD Position Step 2, t=1.00 fs, E_Pot=-13311.74649106 kJ mol^-1, Unit is Angstrom
 O     -0.0000000000     -0.0008842516     -0.0698710682
 H      0.0000000000      0.7797530181      0.4872619857
 H      0.0000000000     -0.7657181562      0.4764953585
3
# ORCA AIMD Position Step 3, t=1.50 fs, E_Pot=-13310.51161459 kJ mol^-1, Unit is Angstrom
 O     -0.0000000000     -0.0011814078     -0.0681742459
 H      0.0000000000      0.7877673717      0.4756568836
 H      0.0000000000     -0.7690160387      0.4611684565
3
# ORCA AIMD Position Step 4, t=2.00 fs, E_Pot=-13309.23579165 kJ mol^-1, Unit is Angstrom
 O     -0.0000000000     -0.0013170489     -0.0666360182
 H      0.0000000000      0.7954759098      0.4644187875
 H      0.0000000000     -0.7745716775      0.4479917653
