9
Retained checkpoint at 500 fs
C         -0.89027691280610          0.19901479243667         -0.02530292327656
C          0.48482217306075         -0.52686845411468         -0.04870895537540
O          1.44804879376294          0.30056722189067          0.57538696950801
H         -0.89382015290048          1.19953420456328         -0.49776278379350
H         -1.55573611718319         -0.46927943461156         -0.50828911090458
H         -1.24306360207053          0.38121727834845          0.96642138518202
H          0.76893191068028         -0.78047809636795         -1.12179588038448
H          0.42132896904855         -1.46798900357462          0.52532937481201
H          1.38498726083473          1.11505920619143          0.10750152061324
