3
# ORCA AIMD Position Step 0, t=0.00 fs, E_Pot=-200446.77062359 kJ mol^-1, Unit is Angstrom
 O     -0.0000000000      0.0000000000     -0.0735096940
 H      0.7603282370      0.0000000000      0.5410388492
 H     -0.7603282369      0.0000000000      0.5410388492
3
# ORCA AIMD Position Step 1, t=0.50 fs, E_Pot=-200446.28571151 kJ mol^-1, Unit is Angstrom
 O     -0.0000420956      0.0000000000     -0.0717020544
 H      0.7674787624      0.0000000000      0.5269634190
 H     -0.7668106204     -0.0000000000      0.5264233816
3
# ORCA AIMD Position Step 2, t=1.00 fs, E_Pot=-200445.29670030 kJ mol^-1, Unit is Angstrom
 O     -0.0000787754      0.0000000000     -0.0699780962
 H      0.7747492685      0.0000000000      0.5135183418
 H     -0.7734989437     -0.0000000000      0.5125057531
3
# ORCA AIMD Position Step 3, t=1.50 fs, E_Pot=-200443.97434965 kJ mol^-1, Unit is Angstrom
 O     -0.0001049002      0.0000000000     -0.0683935652
 H      0.7821834281      0.0000000000      0.5011159279
 H     -0.7805184494     -0.0000000000      0.4997584531
3
# ORCA AIMD Position Step 4, t=2.00 fs, E_Pot=-200442.50223543 kJ mol^-1, Unit is Angstrom
 O     -0.0001165045      0.0000000000     -0.0669926540
 H      0.7897559043      0.0000000000      0.4900854102
 H     -0.7879067421     -0.0000000000      0.4885536741
3
# ORCA AIMD Position Step 5, t=2.50 fs, E_Pot=-200441.02650296 kJ mol^-1, Unit is Angstrom
 O     -0.0001115812      0.0000000000     -0.0658057657
 H      0.7973534469     -0.0000000000      0.4806588816
 H     -0.7955824278     -0.0000000000      0.4791418835
3
# ORCA AIMD Position Step 6, t=3.00 fs, E_Pot=-200439.63466383 kJ mol^-1, Unit is Angstrom
 O     -0.0000905182      0.0000000000     -0.0648492008
 H      0.8047717416     -0.0000000000      0.4729701736
 H     -0.8033350344      0.0000000000      0.4716479705
3
# ORCA AIMD Position Step 7, t=3.50 fs, E_Pot=-200438.36953086 kJ mol^-1, Unit is Angstrom
 O     -0.0000560623      0.0000000000     -0.0641266187
 H      0.8117291326     -0.0000000000      0.4670652301
 H     -0.8108393106      0.0000000000      0.4660840743
3
# ORCA AIMD Position Step 8, t=4.00 fs, E_Pot=-200437.26328410 kJ mol^-1, Unit is Angstrom
 O     -0.0000128253      0.0000000000     -0.0636317852
 H      0.8178941672     -0.0000000000      0.4629205832
 H     -0.8176906032      0.0000000000      0.4623747127
3
# ORCA AIMD Position Step 9, t=4.50 fs, E_Pot=-200436.36736401 kJ mol^-1, Unit is Angstrom
 O      0.0000334992     -0.0000000000     -0.0633518965
 H      0.8229212296     -0.0000000000      0.4604653635
 H     -0.8234529298      0.0000000000      0.4603875316
3
# ORCA AIMD Position Step 10, t=5.00 fs, E_Pot=-200435.76071292 kJ mol^-1, Unit is Angstrom
 O      0.0000770179     -0.0000000000     -0.0632708356
 H      0.8264878487     -0.0000000000      0.4596027286
 H     -0.8277102794      0.0000000001      0.4599635662
3
# ORCA AIMD Position Step 11, t=5.50 fs, E_Pot=-200435.53396691 kJ mol^-1, Unit is Angstrom
 O      0.0001124055     -0.0000000000     -0.0633719456
 H      0.8283280863     -0.0000000001      0.4602282324
 H     -0.8301121898      0.0000000001      0.4609428831
3
# ORCA AIMD Position Step 12, t=6.00 fs, E_Pot=-200435.75942140 kJ mol^-1, Unit is Angstrom
 O      0.0001354962     -0.0000000000     -0.0636401068
 H      0.8282587359     -0.0000000001      0.4622436276
 H     -0.8304093342      0.0000000001      0.4631837487
3
# ORCA AIMD Position Step 13, t=6.50 fs, E_Pot=-200436.46108802 kJ mol^-1, Unit is Angstrom
 O      0.0001436757     -0.0000000000     -0.0640630989
 H      0.8261967046     -0.0000000001      0.4655658938
 H     -0.8284771287      0.0000000001      0.4665752220
3
# ORCA AIMD Position Step 14, t=7.00 fs, E_Pot=-200437.59680539 kJ mol^-1, Unit is Angstrom
 O      0.0001361055     -0.0000000000     -0.0646322882
 H      0.8221671485     -0.0000000001      0.4701315992
 H     -0.8243274179      0.0000000002      0.4710437031
3
# ORCA AIMD Position Step 15, t=7.50 fs, E_Pot=-200439.05873859 kJ mol^-1, Unit is Angstrom
 O      0.0001137671     -0.0000000000     -0.0653426947
 H      0.8163027717     -0.0000000001      0.4758969626
 H     -0.8181084856      0.0000000002      0.4765539296
3
# ORCA AIMD Position Step 16, t=8.00 fs, E_Pot=-200440.69216560 kJ mol^-1, Unit is Angstrom
 O      0.0000793910     -0.0000000000     -0.0661924303
 H      0.8088342812     -0.0000000002      0.4828334082
 H     -0.8100943775      0.0000000002      0.4831045064
3
# ORCA AIMD Position Step 17, t=8.50 fs, E_Pot=-200442.32660319 kJ mol^-1, Unit is Angstrom
 O      0.0000372040     -0.0000000000     -0.0671814915
 H      0.8000726507     -0.0000000002      0.4909187744
 H     -0.8006631533      0.0000000002      0.4907175442
3
# ORCA AIMD Position Step 18, t=9.00 fs, E_Pot=-200443.80868408 kJ mol^-1, Unit is Angstrom
 O     -0.0000075176     -0.0000000000     -0.0683098795
 H      0.7903839264     -0.0000000002      0.5001241809
 H     -0.7902646069      0.0000000002      0.4994219380
3
# ORCA AIMD Position Step 19, t=9.50 fs, E_Pot=-200445.02469638 kJ mol^-1, Unit is Angstrom
 O     -0.0000490915     -0.0000000000     -0.0695751214
 H      0.7801583916     -0.0000000002      0.5103973916
 H     -0.7793792103      0.0000000002      0.5092306781
3
# ORCA AIMD Position Step 20, t=10.00 fs, E_Pot=-200445.90445615 kJ mol^-1, Unit is Angstrom
 O     -0.0000822068     -0.0000000000     -0.0709694479
 H      0.7697772583     -0.0000000002      0.5216445777
 H     -0.7684724706      0.0000000003      0.5201142743
3
# ORCA AIMD Position Step 21, t=10.50 fs, E_Pot=-200446.40752169 kJ mol^-1, Unit is Angstrom
 O     -0.0001027646     -0.0000000000     -0.0724770834
 H      0.7595816210     -0.0000000002      0.5337137975
 H     -0.7579505384      0.0000000003      0.5319742809
3
# ORCA AIMD Position Step 22, t=11.00 fs, E_Pot=-200446.50352882 kJ mol^-1, Unit is Angstrom
 O     -0.0001084437     -0.0000000000     -0.0740722470
 H      0.7498481447     -0.0000000002      0.5463834164
 H     -0.7481269238      0.0000000003      0.5446231368
3
# ORCA AIMD Position Step 23, t=11.50 fs, E_Pot=-200446.16287555 kJ mol^-1, Unit is Angstrom
 O     -0.0000990506     -0.0000000000     -0.0757184694
 H      0.7407767901     -0.0000000003      0.5593598397
 H     -0.7392046561      0.0000000003      0.5577755954
3
# ORCA AIMD Position Step 24, t=12.00 fs, E_Pot=-200445.36723293 kJ mol^-1, Unit is Angstrom
 O     -0.0000764029     -0.0000000000     -0.0773694938
 H      0.7324908318     -0.0000000003      0.5722852385
 H     -0.7312781638      0.0000000003      0.5710552948
3
# ORCA AIMD Position Step 25, t=12.50 fs, E_Pot=-200444.13519307 kJ mol^-1, Unit is Angstrom
 O     -0.0000438873     -0.0000000000     -0.0789717926
 H      0.7250484654     -0.0000000003      0.5847557084
 H     -0.7243518855      0.0000000003      0.5840165489
3
# ORCA AIMD Position Step 26, t=13.00 fs, E_Pot=-200442.54666023 kJ mol^-1, Unit is Angstrom
 O     -0.0000058261     -0.0000000000     -0.0804682826
 H      0.7184618350     -0.0000000003      0.5963471244
 H     -0.7183693632      0.0000000004      0.5961774580
3
# ORCA AIMD Position Step 27, t=13.50 fs, E_Pot=-200440.74995368 kJ mol^-1, Unit is Angstrom
 O      0.0000331774     -0.0000000000     -0.0818025617
 H      0.7127189769     -0.0000000003      0.6066443769
 H     -0.7132455693      0.0000000004      0.6070579160
3
# ORCA AIMD Position Step 28, t=14.00 fs, E_Pot=-200438.94621386 kJ mol^-1, Unit is Angstrom
 O      0.0000687880     -0.0000000000     -0.0829230350
 H      0.7078047374     -0.0000000003      0.6152699500
 H     -0.7088965420      0.0000000004      0.6162165222
3
# ORCA AIMD Position Step 29, t=14.50 fs, E_Pot=-200437.35550248 kJ mol^-1, Unit is Angstrom
 O      0.0000973313      0.0000000000     -0.0837865257
 H      0.7037176981     -0.0000000004      0.6219092221
 H     -0.7052625430      0.0000000004      0.6232825936
3
# ORCA AIMD Position Step 30, t=15.00 fs, E_Pot=-200436.17539882 kJ mol^-1, Unit is Angstrom
 O      0.0001160295      0.0000000000     -0.0843610491
 H      0.7004816889     -0.0000000004      0.6263301511
 H     -0.7023233121      0.0000000004      0.6279805140
3
# ORCA AIMD Position Step 31, t=15.50 fs, E_Pot=-200435.54459653 kJ mol^-1, Unit is Angstrom
 O      0.0001231329      0.0000000000     -0.0846276765
 H      0.6981516827     -0.0000000004      0.6283965835
 H     -0.7001060518      0.0000000004      0.6301459979
3
# ORCA AIMD Position Step 32, t=16.00 fs, E_Pot=-200435.52073230 kJ mol^-1, Unit is Angstrom
 O      0.0001179841      0.0000000000     -0.0845814565
 H      0.6968143569     -0.0000000005      0.6280747267
 H     -0.6986870028      0.0000000004      0.6297342505
3
# ORCA AIMD Position Step 33, t=16.50 fs, E_Pot=-200436.07652671 kJ mol^-1, Unit is Angstrom
 O      0.0001010543      0.0000000000     -0.0842314681
 H      0.6965836427     -0.0000000005      0.6254331183
 H     -0.6981875790      0.0000000004      0.6268208343
3
# ORCA AIMD Position Step 34, t=17.00 fs, E_Pot=-200437.11375389 kJ mol^-1, Unit is Angstrom
 O      0.0000739481      0.0000000000     -0.0835999934
 H      0.6975913024     -0.0000000006      0.6206360151
 H     -0.6987650089      0.0000000004      0.6215951554
3
# ORCA AIMD Position Step 35, t=17.50 fs, E_Pot=-200438.49041574 kJ mol^-1, Unit is Angstrom
 O      0.0000393633      0.0000000000     -0.0827207751
 H      0.6999726227     -0.0000000006      0.6139300577
 H     -0.7005973972      0.0000000004      0.6143461401
3
# ORCA AIMD Position Step 36, t=18.00 fs, E_Pot=-200440.05265077 kJ mol^-1, Unit is Angstrom
 O      0.0000009688      0.0000000000     -0.0816363994
 H      0.7038475173     -0.0000000007      0.6056248332
 H     -0.7038628938      0.0000000004      0.6054401269
3
# ORCA AIMD Position Step 37, t=18.50 fs, E_Pot=-200441.66070905 kJ mol^-1, Unit is Angstrom
 O     -0.0000368590      0.0000000000     -0.0803947850
 H      0.7092977779     -0.0000000007      0.5960675516
 H     -0.7087127508      0.0000000004      0.5952904757
3
# ORCA AIMD Position Step 38, t=19.00 fs, E_Pot=-200443.19942737 kJ mol^-1, Unit is Angstrom
 O     -0.0000694687      0.0000000000     -0.0790451179
 H      0.7163426713     -0.0000000008      0.5856145626
 H     -0.7152400619      0.0000000004      0.5843215159
3
# ORCA AIMD Position Step 39, t=19.50 fs, E_Pot=-200444.57090593 kJ mol^-1, Unit is Angstrom
 O     -0.0000925291      0.0000000000     -0.0776337194
 H      0.7249163541     -0.0000000008      0.5746032714
 H     -0.7234477300      0.0000000003      0.5729310567
3
# ORCA AIMD Position Step 40, t=20.00 fs, E_Pot=-200445.67844134 kJ mol^-1, Unit is Angstrom
 O     -0.0001026926      0.0000000000     -0.0762005748
 H      0.7348517053     -0.0000000009      0.5633293060
 H     -0.7332217653      0.0000000003      0.5614581165
