3
# ORCA AIMD Position Step 0, t=0.00 fs, E_Pot=-13310.15391930 kJ mol^-1, Unit is Angstrom
 O     -0.0000000000      0.0000000000     -0.0735096940
 H      0.7603282370      0.0000000000      0.5410388492
 H     -0.7603282369      0.0000000000      0.5410388492
3
# ORCA AIMD Position Step 1, t=0.50 fs, E_Pot=-13311.01227758 kJ mol^-1, Unit is Angstrom
 O     -0.0000243039      0.0000000000     -0.0724660528
 H      0.7644565947      0.0000000000      0.5329123958
 H     -0.7640708428     -0.0000000000      0.5326006051
3
# ORCA AIMD Position Step 2, t=1.00 fs, E_Pot=-13311.86084487 kJ mol^-1, Unit is Angstrom
 O     -0.0000467476      0.0000000000     -0.0712190699
 H      0.7678908085     -0.0000000000      0.5231608484
 H     -0.7671488295      0.0000000000      0.5225600097
3
# ORCA AIMD Position Step 3, t=1.50 fs, E_Pot=-13312.47332244 kJ mol^-1, Unit is Angstrom
 O     -0.0000638193      0.0000000000     -0.0698669079
 H      0.7706228843     -0.0000000000      0.5125417960
 H     -0.7696099432      0.0000000000      0.5117175159
3
# ORCA AIMD Position Step 4, t=2.00 fs, E_Pot=-13312.70863066 kJ mol^-1, Unit is Angstrom
 O     -0.0000735625      0.0000000000     -0.0684455547
 H      0.7729447642     -0.0000000000      0.5013299066
 H     -0.7717771779      0.0000000000      0.5003696535
3
# ORCA AIMD Position Step 5, t=2.50 fs, E_Pot=-13312.48249053 kJ mol^-1, Unit is Angstrom
 O     -0.0000745298      0.0000000000     -0.0669596362
 H      0.7752693086     -0.0000000000      0.4895547708
 H     -0.7740863701      0.0000000000      0.4885602545
3
# ORCA AIMD Position Step 6, t=3.00 fs, E_Pot=-13311.84919524 kJ mol^-1, Unit is Angstrom
 O     -0.0000658086      0.0000000000     -0.0655464069
 H      0.7778485871     -0.0000000000      0.4783010296
 H     -0.7768040713      0.0000000000      0.4773831865
3
# ORCA AIMD Position Step 7, t=3.50 fs, E_Pot=-13310.94526028 kJ mol^-1, Unit is Angstrom
 O     -0.0000473857      0.0000000000     -0.0641979645
 H      0.7811587182     -0.0000000000      0.4675077047
 H     -0.7804066107      0.0000000000      0.4667740016
3
# ORCA AIMD Position Step 8, t=4.00 fs, E_Pot=-13309.99472500 kJ mol^-1, Unit is Angstrom
 O     -0.0000213883      0.0000000000     -0.0629941736
 H      0.7854153788     -0.0000000000      0.4578212799
 H     -0.7850759037      0.0000000000      0.4573538292
3
# ORCA AIMD Position Step 9, t=4.50 fs, E_Pot=-13309.12644979 kJ mol^-1, Unit is Angstrom
 O      0.0000101073      0.0000000000     -0.0619292012
 H      0.7909391640     -0.0000000000      0.4492077166
 H     -0.7910995875      0.0000000000      0.4490641256
3
# ORCA AIMD Position Step 10, t=5.00 fs, E_Pot=-13308.48406756 kJ mol^-1, Unit is Angstrom
 O      0.0000397533      0.0000000000     -0.0611309738
 H      0.7970954990     -0.0000000000      0.4427208261
 H     -0.7977264652      0.0000000000      0.4428815310
3
# ORCA AIMD Position Step 11, t=5.50 fs, E_Pot=-13307.97040555 kJ mol^-1, Unit is Angstrom
 O      0.0000651329      0.0000000000     -0.0605525643
 H      0.8039332103     -0.0000000000      0.4380005239
 H     -0.8049670018      0.0000000000      0.4384213038
3
# ORCA AIMD Position Step 12, t=6.00 fs, E_Pot=-13307.46109010 kJ mol^-1, Unit is Angstrom
 O      0.0000831012      0.0000000000     -0.0601780130
 H      0.8110834908     -0.0000000000      0.4349356176
 H     -0.8124024744      0.0000000000      0.4355413226
3
# ORCA AIMD Position Step 13, t=6.50 fs, E_Pot=-13306.87705390 kJ mol^-1, Unit is Angstrom
 O      0.0000913847      0.0000000000     -0.0599882271
 H      0.8179732582     -0.0000000000      0.4333853879
 H     -0.8194237188      0.0000000000      0.4340792663
3
# ORCA AIMD Position Step 14, t=7.00 fs, E_Pot=-13306.26966933 kJ mol^-1, Unit is Angstrom
 O      0.0000890881      0.0000000000     -0.0599606364
 H      0.8237912583     -0.0000000000      0.4331747500
 H     -0.8252052666      0.0000000000      0.4338519837
3
# ORCA AIMD Position Step 15, t=7.50 fs, E_Pot=-13305.65065686 kJ mol^-1, Unit is Angstrom
 O      0.0000759928      0.0000000000     -0.0600694679
 H      0.8288341441     -0.0000000000      0.4340994520
 H     -0.8300403039      0.0000000000      0.4346546584
3
# ORCA AIMD Position Step 16, t=8.00 fs, E_Pot=-13305.19532031 kJ mol^-1, Unit is Angstrom
 O      0.0000533320      0.0000000000     -0.0602959668
 H      0.8323297508     -0.0000000000      0.4360045252
 H     -0.8331762369      0.0000000000      0.4363445812
3
# ORCA AIMD Position Step 17, t=8.50 fs, E_Pot=-13304.97964333 kJ mol^-1, Unit is Angstrom
 O      0.0000148356      0.0000000000     -0.0607117787
 H      0.8345185270     -0.0000000000      0.4394880663
 H     -0.8347539987      0.0000000000      0.4394608166
3
# ORCA AIMD Position Step 18, t=9.00 fs, E_Pot=-13305.25691566 kJ mol^-1, Unit is Angstrom
 O     -0.0000254002      0.0000000000     -0.0611886047
 H      0.8341225692     -0.0000000000      0.4434641232
 H     -0.8337194164      0.0000000000      0.4430529531
3
# ORCA AIMD Position Step 19, t=9.50 fs, E_Pot=-13306.06031396 kJ mol^-1, Unit is Angstrom
 O     -0.0000609927      0.0000000000     -0.0616832129
 H      0.8310775712     -0.0000000000      0.4475583258
 H     -0.8301094935      0.0000000000      0.4468091836
3
# ORCA AIMD Position Step 20, t=10.00 fs, E_Pot=-13307.23888386 kJ mol^-1, Unit is Angstrom
 O     -0.0000873127      0.0000000000     -0.0621703517
 H      0.8257330785     -0.0000000000      0.4515472022
 H     -0.8243472487      0.0000000000      0.4505521866
3
# ORCA AIMD Position Step 21, t=10.50 fs, E_Pot=-13308.76189936 kJ mol^-1, Unit is Angstrom
 O     -0.0001060818      0.0000000000     -0.0627435256
 H      0.8173749256     -0.0000000000      0.4561791492
 H     -0.8156911935      0.0000000000      0.4550176684
3
# ORCA AIMD Position Step 22, t=11.00 fs, E_Pot=-13310.19355129 kJ mol^-1, Unit is Angstrom
 O     -0.0001132171      0.0000000000     -0.0633849015
 H      0.8068639138     -0.0000000000      0.4612916425
 H     -0.8050669290      0.0000000000      0.4600851091
3
# ORCA AIMD Position Step 23, t=11.50 fs, E_Pot=-13311.20853797 kJ mol^-1, Unit is Angstrom
 O     -0.0001070901      0.0000000000     -0.0641142597
 H      0.7948989741     -0.0000000000      0.4670320376
 H     -0.7931992383      0.0000000000      0.4659211040
3
# ORCA AIMD Position Step 24, t=12.00 fs, E_Pot=-13311.63485967 kJ mol^-1, Unit is Angstrom
 O     -0.0000883535      0.0000000000     -0.0649181973
 H      0.7829255289     -0.0000000000      0.4732967815
 H     -0.7815231800      0.0000000000      0.4724164768
3
# ORCA AIMD Position Step 25, t=12.50 fs, E_Pot=-13311.57939348 kJ mol^-1, Unit is Angstrom
 O     -0.0000574390      0.0000000000     -0.0658892906
 H      0.7707794050     -0.0000000000      0.4808202558
 H     -0.7698677320      0.0000000000      0.4803062184
3
# ORCA AIMD Position Step 26, t=13.00 fs, E_Pot=-13311.25973818 kJ mol^-1, Unit is Angstrom
 O     -0.0000196994      0.0000000000     -0.0669962497
 H      0.7598859293     -0.0000000000      0.4893832638
 H     -0.7595732595      0.0000000000      0.4893128925
3
# ORCA AIMD Position Step 27, t=13.50 fs, E_Pot=-13310.97323556 kJ mol^-1, Unit is Angstrom
 O      0.0000183202      0.0000000000     -0.0681993292
 H      0.7511779869     -0.0000000000      0.4987073825
 H     -0.7514687661      0.0000000000      0.4990840794
3
# ORCA AIMD Position Step 28, t=14.00 fs, E_Pot=-13310.82156990 kJ mol^-1, Unit is Angstrom
 O      0.0000537351      0.0000000000     -0.0695553564
 H      0.7443985603     -0.0000000000      0.5092606871
 H     -0.7452514454      0.0000000000      0.5100536715
3
# ORCA AIMD Position Step 29, t=14.50 fs, E_Pot=-13310.70548187 kJ mol^-1, Unit is Angstrom
 O      0.0000812198      0.0000000000     -0.0709979965
 H      0.7397395346     -0.0000000000      0.5205496424
 H     -0.7410286566      0.0000000000      0.5216623337
3
# ORCA AIMD Position Step 30, t=15.00 fs, E_Pot=-13310.39317773 kJ mol^-1, Unit is Angstrom
 O      0.0000980444      0.0000000000     -0.0724888680
 H      0.7369320668     -0.0000000000      0.5322880671
 H     -0.7384882298      0.0000000000      0.5335870575
3
# ORCA AIMD Position Step 31, t=15.50 fs, E_Pot=-13309.67185968 kJ mol^-1, Unit is Angstrom
 O      0.0001028529      0.0000000000     -0.0739618257
 H      0.7355954829     -0.0000000000      0.5439612089
 H     -0.7372279672      0.0000000000      0.5452927358
3
# ORCA AIMD Position Step 32, t=16.00 fs, E_Pot=-13308.48793660 kJ mol^-1, Unit is Angstrom
 O      0.0000958665      0.0000000000     -0.0753373525
 H      0.7352644911     -0.0000000000      0.5549379769
 H     -0.7367860867      0.0000000000      0.5561483612
3
# ORCA AIMD Position Step 33, t=16.50 fs, E_Pot=-13306.88610072 kJ mol^-1, Unit is Angstrom
 O      0.0000779386      0.0000000000     -0.0766098519
 H      0.7354522064     -0.0000000000      0.5651702403
 H     -0.7366892506      0.0000000000      0.5661132384
3
# ORCA AIMD Position Step 34, t=17.00 fs, E_Pot=-13305.19262358 kJ mol^-1, Unit is Angstrom
 O      0.0000518341      0.0000000000     -0.0776566242
 H      0.7357094213     -0.0000000000      0.5736660530
 H     -0.7365321328      0.0000000000      0.5742318209
3
# ORCA AIMD Position Step 35, t=17.50 fs, E_Pot=-13303.91584339 kJ mol^-1, Unit is Angstrom
 O      0.0000226838      0.0000000000     -0.0783429580
 H      0.7356633192     -0.0000000000      0.5793211404
 H     -0.7360233573      0.0000000000      0.5794702392
3
# ORCA AIMD Position Step 36, t=18.00 fs, E_Pot=-13303.19087466 kJ mol^-1, Unit is Angstrom
 O     -0.0000102769      0.0000000000     -0.0787203785
 H      0.7350880401     -0.0000000000      0.5825511013
 H     -0.7349249252      0.0000000000      0.5822307060
3
# ORCA AIMD Position Step 37, t=18.50 fs, E_Pot=-13303.20598696 kJ mol^-1, Unit is Angstrom
 O     -0.0000427230      0.0000000000     -0.0787423558
 H      0.7339041052     -0.0000000000      0.5829568088
 H     -0.7332260051      0.0000000000      0.5821738236
3
# ORCA AIMD Position Step 38, t=19.00 fs, E_Pot=-13303.96860579 kJ mol^-1, Unit is Angstrom
 O     -0.0000755710      0.0000000000     -0.0783829282
 H      0.7319730281     -0.0000000000      0.5803396878
 H     -0.7307735633      0.0000000000      0.5790861005
3
# ORCA AIMD Position Step 39, t=19.50 fs, E_Pot=-13305.16260236 kJ mol^-1, Unit is Angstrom
 O     -0.0001004208      0.0000000000     -0.0776984582
 H      0.7297789107     -0.0000000000      0.5750881218
 H     -0.7281850301      0.0000000000      0.5734737418
3
# ORCA AIMD Position Step 40, t=20.00 fs, E_Pot=-13306.43485943 kJ mol^-1, Unit is Angstrom
 O     -0.0001139295      0.0000000000     -0.0767570062
 H      0.7277415096     -0.0000000000      0.5677194321
 H     -0.7259332184      0.0000000000      0.5658996834
3
# ORCA AIMD Position Step 41, t=20.50 fs, E_Pot=-13307.52923887 kJ mol^-1, Unit is Angstrom
 O     -0.0001144681      0.0000000000     -0.0755987106
 H      0.7262686090     -0.0000000000      0.5585419760
 H     -0.7244517694      0.0000000000      0.5566926443
3
# ORCA AIMD Position Step 42, t=21.00 fs, E_Pot=-13308.30578525 kJ mol^-1, Unit is Angstrom
 O     -0.0001005999      0.0000000000     -0.0742198518
 H      0.7258363595     -0.0000000000      0.5475182593
 H     -0.7242396352      0.0000000000      0.5458310814
3
# ORCA AIMD Position Step 43, t=21.50 fs, E_Pot=-13308.72317926 kJ mol^-1, Unit is Angstrom
 O     -0.0000721190      0.0000000000     -0.0727010812
 H      0.7271063137     -0.0000000000      0.5352883818
 H     -0.7259616396      0.0000000000      0.5339549947
3
# ORCA AIMD Position Step 44, t=22.00 fs, E_Pot=-13308.98943355 kJ mol^-1, Unit is Angstrom
 O     -0.0000319301      0.0000000000     -0.0711649336
 H      0.7306612864     -0.0000000000      0.5228452377
 H     -0.7301544905      0.0000000000      0.5220163686
3
# ORCA AIMD Position Step 45, t=22.50 fs, E_Pot=-13309.43668849 kJ mol^-1, Unit is Angstrom
 O      0.0000137605      0.0000000000     -0.0697391274
 H      0.7367621173     -0.0000000000      0.5112434083
 H     -0.7369805245      0.0000000000      0.5109877672
3
# ORCA AIMD Position Step 46, t=23.00 fs, E_Pot=-13310.22444166 kJ mol^-1, Unit is Angstrom
 O      0.0000570252      0.0000000000     -0.0685184082
 H      0.7451996459     -0.0000000000      0.5012850057
 H     -0.7461047506      0.0000000000      0.5015708869
3
# ORCA AIMD Position Step 47, t=23.50 fs, E_Pot=-13311.24070572 kJ mol^-1, Unit is Angstrom
 O      0.0000951369      0.0000000000     -0.0674184954
 H      0.7563852406     -0.0000000000      0.4923167171
 H     -0.7578952564      0.0000000000      0.4930813322
3
# ORCA AIMD Position Step 48, t=24.00 fs, E_Pot=-13312.00903759 kJ mol^-1, Unit is Angstrom
 O      0.0001219240      0.0000000000     -0.0664544620
 H      0.7695492100     -0.0000000000      0.4844935172
 H     -0.7714843909      0.0000000000      0.4856033720
3
# ORCA AIMD Position Step 49, t=24.50 fs, E_Pot=-13312.06446000 kJ mol^-1, Unit is Angstrom
 O      0.0001341805      0.0000000000     -0.0655907315
 H      0.7839745622     -0.0000000000      0.4775491650
 H     -0.7861042784      0.0000000000      0.4788385727
3
# ORCA AIMD Position Step 50, t=25.00 fs, E_Pot=-13311.15304930 kJ mol^-1, Unit is Angstrom
 O      0.0001307463      0.0000000000     -0.0647845178
 H      0.7987899045     -0.0000000000      0.4711480035
 H     -0.8008651132      0.0000000000      0.4724434909
3
# ORCA AIMD Position Step 51, t=25.50 fs, E_Pot=-13309.48873997 kJ mol^-1, Unit is Angstrom
 O      0.0001130247      0.0000000000     -0.0640442764
 H      0.8121492552     -0.0000000000      0.4653485007
 H     -0.8139431866      0.0000000000      0.4664938641
3
# ORCA AIMD Position Step 52, t=26.00 fs, E_Pot=-13307.42732938 kJ mol^-1, Unit is Angstrom
 O      0.0000829214      0.0000000000     -0.0633043040
 H      0.8238331264     -0.0000000000      0.4596164306
 H     -0.8251492569      0.0000000000      0.4604810759
3
# ORCA AIMD Position Step 53, t=26.50 fs, E_Pot=-13305.44201666 kJ mol^-1, Unit is Angstrom
 O      0.0000437736      0.0000000000     -0.0625444136
 H      0.8331348352     -0.0000000000      0.4537729873
 H     -0.8338296108      0.0000000000      0.4542635199
3
# ORCA AIMD Position Step 54, t=27.00 fs, E_Pot=-13303.95740580 kJ mol^-1, Unit is Angstrom
 O     -0.0000003233      0.0000000000     -0.0617604754
 H      0.8394986696     -0.0000000000      0.4477638251
 H     -0.8394935384      0.0000000000      0.4478299969
3
# ORCA AIMD Position Step 55, t=27.50 fs, E_Pot=-13303.21203498 kJ mol^-1, Unit is Angstrom
 O     -0.0000450628      0.0000000000     -0.0609594119
 H      0.8426245956     -0.0000000000      0.4416219786
 H     -0.8419093580      0.0000000000      0.4412573446
3
# ORCA AIMD Position Step 56, t=28.00 fs, E_Pot=-13303.20840617 kJ mol^-1, Unit is Angstrom
 O     -0.0000854307      0.0000000000     -0.0601718891
 H      0.8424342658     -0.0000000000      0.4355661350
 H     -0.8410783080      0.0000000000      0.4348136075
3
# ORCA AIMD Position Step 57, t=28.50 fs, E_Pot=-13303.70474162 kJ mol^-1, Unit is Angstrom
 O     -0.0001173683      0.0000000000     -0.0594253819
 H      0.8391482610     -0.0000000000      0.4297947693
 H     -0.8372853891      0.0000000000      0.4287363932
3
# ORCA AIMD Position Step 58, t=29.00 fs, E_Pot=-13304.30829809 kJ mol^-1, Unit is Angstrom
 O     -0.0001364905      0.0000000000     -0.0587747880
 H      0.8332925682     -0.0000000000      0.4247227668
 H     -0.8311261878      0.0000000000      0.4234821536
3
# ORCA AIMD Position Step 59, t=29.50 fs, E_Pot=-13304.64845066 kJ mol^-1, Unit is Angstrom
 O     -0.0001399078      0.0000000000     -0.0582684796
 H      0.8255331858     -0.0000000000      0.4207204934
 H     -0.8233125661      0.0000000000      0.4194482880
3
# ORCA AIMD Position Step 60, t=30.00 fs, E_Pot=-13304.55345741 kJ mol^-1, Unit is Angstrom
 O     -0.0001261544     -0.0000000000     -0.0579758860
 H      0.8169453539     -0.0000000000      0.4183320919
 H     -0.8149430286      0.0000000000      0.4171926371
3
# ORCA AIMD Position Step 61, t=30.50 fs, E_Pot=-13304.20213053 kJ mol^-1, Unit is Angstrom
 O     -0.0000963117     -0.0000000000     -0.0579502013
 H      0.8084969801     -0.0000000000      0.4179846963
 H     -0.8069683192      0.0000000000      0.4171323634
3
# ORCA AIMD Position Step 62, t=31.00 fs, E_Pot=-13304.01594830 kJ mol^-1, Unit is Angstrom
 O     -0.0000529599     -0.0000000000     -0.0582374798
 H      0.8008180483     -0.0000000000      0.4200556859
 H     -0.7999774671      0.0000000000      0.4196210660
3
# ORCA AIMD Position Step 63, t=31.50 fs, E_Pot=-13304.47035274 kJ mol^-1, Unit is Angstrom
 O     -0.0000001675     -0.0000000000     -0.0588893061
 H      0.7943591029      0.0000000000      0.4249736219
 H     -0.7943564450      0.0000000000      0.4250489325
3
# ORCA AIMD Position Step 64, t=32.00 fs, E_Pot=-13305.84094508 kJ mol^-1, Unit is Angstrom
 O      0.0000547199     -0.0000000000     -0.0599324766
 H      0.7895803967      0.0000000000      0.4329870588
 H     -0.7904489131      0.0000000000      0.4335927223
3
# ORCA AIMD Position Step 65, t=32.50 fs, E_Pot=-13307.95077356 kJ mol^-1, Unit is Angstrom
 O      0.0001032505     -0.0000000000     -0.0613536961
 H      0.7866285517      0.0000000000      0.4440333701
 H     -0.7882673455      0.0000000000      0.4451040408
3
# ORCA AIMD Position Step 66, t=33.00 fs, E_Pot=-13310.16761314 kJ mol^-1, Unit is Angstrom
 O      0.0001377904     -0.0000000000     -0.0630797278
 H      0.7852728526      0.0000000000      0.4575718363
 H     -0.7874598647      0.0000000000      0.4589611915
3
# ORCA AIMD Position Step 67, t=33.50 fs, E_Pot=-13311.81493292 kJ mol^-1, Unit is Angstrom
 O      0.0001552451     -0.0000000000     -0.0650830887
 H      0.7848830839      0.0000000000      0.4734037954
 H     -0.7873471374      0.0000000000      0.4749266229
3
# ORCA AIMD Position Step 68, t=34.00 fs, E_Pot=-13312.33466682 kJ mol^-1, Unit is Angstrom
 O      0.0001541248     -0.0000000000     -0.0672054159
 H      0.7846940755      0.0000000000      0.4902826076
 H     -0.7871403479      0.0000000000      0.4917334387
3
# ORCA AIMD Position Step 69, t=34.50 fs, E_Pot=-13311.70646122 kJ mol^-1, Unit is Angstrom
 O      0.0001364137     -0.0000000000     -0.0693041717
 H      0.7839151886      0.0000000000      0.5070682128
 H     -0.7860803503      0.0000000000      0.5082593359
3
# ORCA AIMD Position Step 70, t=35.00 fs, E_Pot=-13310.34527570 kJ mol^-1, Unit is Angstrom
 O      0.0001062189     -0.0000000000     -0.0712373875
 H      0.7819151861      0.0000000000      0.5226118688
 H     -0.7836010950      0.0000000000      0.5233997280
3
# ORCA AIMD Position Step 71, t=35.50 fs, E_Pot=-13308.75807052 kJ mol^-1, Unit is Angstrom
 O      0.0000671825     -0.0000000000     -0.0729663786
 H      0.7782127334      0.0000000000      0.5365869886
 H     -0.7792790551      0.0000000000      0.5368671954
3
# ORCA AIMD Position Step 72, t=36.00 fs, E_Pot=-13307.29696298 kJ mol^-1, Unit is Angstrom
 O      0.0000214316     -0.0000000000     -0.0745113749
 H      0.7723330326      0.0000000000      0.5491429153
 H     -0.7726731953      0.0000000000      0.5488334860
3
# ORCA AIMD Position Step 73, t=36.50 fs, E_Pot=-13306.31069717 kJ mol^-1, Unit is Angstrom
 O     -0.0000243917     -0.0000000000     -0.0757397094
 H      0.7645242533      0.0000000000      0.5591852637
 H     -0.7641371085      0.0000000000      0.5582872930
3
# ORCA AIMD Position Step 74, t=37.00 fs, E_Pot=-13305.82608465 kJ mol^-1, Unit is Angstrom
 O     -0.0000672980     -0.0000000000     -0.0766546841
 H      0.7547779675      0.0000000000      0.5667211515
 H     -0.7537098115      0.0000000000      0.5652739057
3
# ORCA AIMD Position Step 75, t=37.50 fs, E_Pot=-13305.62328285 kJ mol^-1, Unit is Angstrom
 O     -0.0001049626     -0.0000000000     -0.0772785163
 H      0.7430289085      0.0000000000      0.5719110419
 H     -0.7413629399      0.0000000000      0.5699854947
3
# ORCA AIMD Position Step 76, t=38.00 fs, E_Pot=-13305.32388619 kJ mol^-1, Unit is Angstrom
 O     -0.0001320547     -0.0000000000     -0.0775963923
 H      0.7302395621      0.0000000000      0.5746014039
 H     -0.7281435861      0.0000000000      0.5723404673
3
# ORCA AIMD Position Step 77, t=38.50 fs, E_Pot=-13304.63869286 kJ mol^-1, Unit is Angstrom
 O     -0.0001434273     -0.0000000000     -0.0776279946
 H      0.7182358059      0.0000000000      0.5749135978
 H     -0.7159593244      0.0000000000      0.5725298662
3
# ORCA AIMD Position Step 78, t=39.00 fs, E_Pot=-13303.45671019 kJ mol^-1, Unit is Angstrom
 O     -0.0001380384     -0.0000000000     -0.0774417617
 H      0.7074207533      0.0000000000      0.5733815124
 H     -0.7052298041      0.0000000000      0.5711060580
3
# ORCA AIMD Position Step 79, t=39.50 fs, E_Pot=-13301.95499245 kJ mol^-1, Unit is Angstrom
 O     -0.0001157340     -0.0000000000     -0.0771093869
 H      0.6986882147      0.0000000000      0.5705717639
 H     -0.6968512820      0.0000000000      0.5686403472
3
# ORCA AIMD Position Step 80, t=40.00 fs, E_Pot=-13300.59877146 kJ mol^-1, Unit is Angstrom
 O     -0.0000782491     -0.0000000000     -0.0767007814
 H      0.6928187626      0.0000000000      0.5670504155
 H     -0.6915767918      0.0000000000      0.5656762984
3
# ORCA AIMD Position Step 81, t=40.50 fs, E_Pot=-13300.09550225 kJ mol^-1, Unit is Angstrom
 O     -0.0000331481     -0.0000000000     -0.0763109444
 H      0.6908226185      0.0000000000      0.5636256223
 H     -0.6902964904      0.0000000000      0.5629135894
3
# ORCA AIMD Position Step 82, t=41.00 fs, E_Pot=-13300.77686597 kJ mol^-1, Unit is Angstrom
 O      0.0000177349     -0.0000000000     -0.0759400522
 H      0.6927404255      0.0000000000      0.5603106533
 H     -0.6930219147      0.0000000000      0.5603417486
3
# ORCA AIMD Position Step 83, t=41.50 fs, E_Pot=-13302.71045501 kJ mol^-1, Unit is Angstrom
 O      0.0000718718     -0.0000000000     -0.0755672331
 H      0.6989589465      0.0000000000      0.5569565797
 H     -0.7000996979      0.0000000000      0.5577784288
3
# ORCA AIMD Position Step 84, t=42.00 fs, E_Pot=-13305.33854937 kJ mol^-1, Unit is Angstrom
 O      0.0001194387     -0.0000000000     -0.0751904680
 H      0.7090831325      0.0000000000      0.5536160767
 H     -0.7109788667      0.0000000000      0.5551389071
3
# ORCA AIMD Position Step 85, t=42.50 fs, E_Pot=-13307.81110289 kJ mol^-1, Unit is Angstrom
 O      0.0001523225     -0.0000000000     -0.0747829041
 H      0.7220265070      0.0000000000      0.5501312122
 H     -0.7244441728      0.0000000000      0.5521549071
3
# ORCA AIMD Position Step 86, t=43.00 fs, E_Pot=-13309.52692163 kJ mol^-1, Unit is Angstrom
 O      0.0001667878     -0.0000000000     -0.0742958212
 H      0.7366698244      0.0000000000      0.5461384283
 H     -0.7393170839      0.0000000000      0.5484167005
3
# ORCA AIMD Position Step 87, t=43.50 fs, E_Pot=-13310.28204063 kJ mol^-1, Unit is Angstrom
 O      0.0001620319     -0.0000000000     -0.0736951185
 H      0.7514855555      0.0000000000      0.5413705818
 H     -0.7540573305      0.0000000000      0.5436501796
3
# ORCA AIMD Position Step 88, t=44.00 fs, E_Pot=-13310.27417474 kJ mol^-1, Unit is Angstrom
 O      0.0001392432     -0.0000000000     -0.0729000240
 H      0.7664745167      0.0000000000      0.5351741731
 H     -0.7686845884      0.0000000000      0.5372268291
3
# ORCA AIMD Position Step 89, t=44.50 fs, E_Pot=-13309.80470549 kJ mol^-1, Unit is Angstrom
 O      0.0001016468     -0.0000000000     -0.0718989780
 H      0.7804061560      0.0000000000      0.5274355016
 H     -0.7820194962      0.0000000000      0.5290768751
3
# ORCA AIMD Position Step 90, t=45.00 fs, E_Pot=-13309.21838706 kJ mol^-1, Unit is Angstrom
 O      0.0000516782     -0.0000000000     -0.0706430517
 H      0.7930111809     -0.0000000000      0.5177486660
 H     -0.7938314186      0.0000000000      0.5188296176
3
# ORCA AIMD Position Step 91, t=45.50 fs, E_Pot=-13308.80756735 kJ mol^-1, Unit is Angstrom
 O     -0.0000049160     -0.0000000000     -0.0691661477
 H      0.8033920264     -0.0000000000      0.5063477053
 H     -0.8033139998      0.0000000000      0.5067891230
3
# ORCA AIMD Position Step 92, t=46.00 fs, E_Pot=-13308.66882522 kJ mol^-1, Unit is Angstrom
 O     -0.0000646723     -0.0000000000     -0.0674450478
 H      0.8114620996     -0.0000000000      0.4930275321
 H     -0.8104356192      0.0000000000      0.4927919586
3
# ORCA AIMD Position Step 93, t=46.50 fs, E_Pot=-13308.69598223 kJ mol^-1, Unit is Angstrom
 O     -0.0001205530     -0.0000000000     -0.0655562983
 H      0.8168587956     -0.0000000000      0.4783561969
 H     -0.8149453760      0.0000000000      0.4774850158
3
# ORCA AIMD Position Step 94, t=47.00 fs, E_Pot=-13308.59641342 kJ mol^-1, Unit is Angstrom
 O     -0.0001664520     -0.0000000000     -0.0635587170
 H      0.8196588563     -0.0000000000      0.4627682001
 H     -0.8170169260      0.0000000000      0.4613673549
3
# ORCA AIMD Position Step 95, t=47.50 fs, E_Pot=-13307.97056662 kJ mol^-1, Unit is Angstrom
 O     -0.0001965163     -0.0000000000     -0.0615124004
 H      0.8201972568     -0.0000000000      0.4467115951
 H     -0.8170781460      0.0000000000      0.4449447741
3
# ORCA AIMD Position Step 96, t=48.00 fs, E_Pot=-13306.53307716 kJ mol^-1, Unit is Angstrom
 O     -0.0002045112     -0.0000000000     -0.0595648263
 H      0.8190370613     -0.0000000000      0.4313267432
 H     -0.8157910549      0.0000000000      0.4294176835
3
# ORCA AIMD Position Step 97, t=48.50 fs, E_Pot=-13304.21953631 kJ mol^-1, Unit is Angstrom
 O     -0.0001871424      0.0000000000     -0.0577681034
 H      0.8169319718     -0.0000000000      0.4170148563
 H     -0.8139616425      0.0000000000      0.4152119413
3
# ORCA AIMD Position Step 98, t=49.00 fs, E_Pot=-13301.27092963 kJ mol^-1, Unit is Angstrom
 O     -0.0001431594      0.0000000000     -0.0561794728
 H      0.8147224425     -0.0000000000      0.4042283817
 H     -0.8124502139      0.0000000000      0.4027836336
3
# ORCA AIMD Position Step 99, t=49.50 fs, E_Pot=-13298.48885030 kJ mol^-1, Unit is Angstrom
 O     -0.0000782357      0.0000000000     -0.0549534889
 H      0.8134053323     -0.0000000000      0.3942223963
 H     -0.8121635736      0.0000000000      0.3933307736
3
# ORCA AIMD Position Step 100, t=50.00 fs, E_Pot=-13296.63958611 kJ mol^-1, Unit is Angstrom
 O     -0.0000009032      0.0000000000     -0.0541451224
 H      0.8136837930     -0.0000000000      0.3874743412
 H     -0.8136694567      0.0000000000      0.3872484161
3
# ORCA AIMD Position Step 101, t=50.50 fs, E_Pot=-13296.17406494 kJ mol^-1, Unit is Angstrom
 O      0.0000758240      0.0000000000     -0.0537926975
 H      0.8158950812     -0.0000000000      0.3843474846
 H     -0.8170985610      0.0000000000      0.3847815764
3
# ORCA AIMD Position Step 102, t=51.00 fs, E_Pot=-13296.95014038 kJ mol^-1, Unit is Angstrom
 O      0.0001531303      0.0000000000     -0.0538596031
 H      0.8204945060     -0.0000000000      0.3845480958
 H     -0.8229249932      0.0000000000      0.3856428928
3
# ORCA AIMD Position Step 103, t=51.50 fs, E_Pot=-13298.34124627 kJ mol^-1, Unit is Angstrom
 O      0.0002106793      0.0000000000     -0.0543392633
 H      0.8265997437     -0.0000000000      0.3881126478
 H     -0.8299436504      0.0000000000      0.3896915186
3
# ORCA AIMD Position Step 104, t=52.00 fs, E_Pot=-13299.68217724 kJ mol^-1, Unit is Angstrom
 O      0.0002419398      0.0000000000     -0.0551968032
 H      0.8334919855     -0.0000000000      0.3947939685
 H     -0.8373320595      0.0000000000      0.3966210922
3
# ORCA AIMD Position Step 105, t=52.50 fs, E_Pot=-13300.51455901 kJ mol^-1, Unit is Angstrom
 O      0.0002421996      0.0000000000     -0.0562738934
 H      0.8394577802     -0.0000000000      0.4033562241
 H     -0.8433019781      0.0000000000      0.4051544372
3
# ORCA AIMD Position Step 106, t=53.00 fs, E_Pot=-13300.98577101 kJ mol^-1, Unit is Angstrom
 O      0.0002136568      0.0000000000     -0.0576464699
 H      0.8443025355     -0.0000000000      0.4143960470
 H     -0.8476937020      0.0000000000      0.4159001811
3
# ORCA AIMD Position Step 107, t=53.50 fs, E_Pot=-13301.32452965 kJ mol^-1, Unit is Angstrom
 O      0.0001633728      0.0000000000     -0.0591278351
 H      0.8466722438     -0.0000000000      0.4263999447
 H     -0.8492653009      0.0000000000      0.4274085475
3
# ORCA AIMD Position Step 108, t=54.00 fs, E_Pot=-13301.96482384 kJ mol^-1, Unit is Angstrom
 O      0.0000962205      0.0000000000     -0.0607074225
 H      0.8459788939     -0.0000000000      0.4392633035
 H     -0.8475061075      0.0000000000      0.4396164368
3
# ORCA AIMD Position Step 109, t=54.50 fs, E_Pot=-13303.22878603 kJ mol^-1, Unit is Angstrom
 O      0.0000167098      0.0000000000     -0.0623888983
 H      0.8416501981     -0.0000000000      0.4529947759
 H     -0.8419154165      0.0000000000      0.4525733895
3
# ORCA AIMD Position Step 110, t=55.00 fs, E_Pot=-13305.15342656 kJ mol^-1, Unit is Angstrom
 O     -0.0000645497      0.0000000000     -0.0640615192
 H      0.8335691187     -0.0000000000      0.4666635088
 H     -0.8325445848      0.0000000000      0.4654525343
3
# ORCA AIMD Position Step 111, t=55.50 fs, E_Pot=-13307.52719568 kJ mol^-1, Unit is Angstrom
 O     -0.0001386627     -0.0000000000     -0.0656645606
 H      0.8219491089     -0.0000000000      0.4797418155
 H     -0.8197482517      0.0000000000      0.4778177393
3
# ORCA AIMD Position Step 112, t=56.00 fs, E_Pot=-13309.91348842 kJ mol^-1, Unit is Angstrom
 O     -0.0001982316     -0.0000000000     -0.0671714288
 H      0.8072317354     -0.0000000000      0.4919779882
 H     -0.8040853990      0.0000000000      0.4894986154
3
# ORCA AIMD Position Step 113, t=56.50 fs, E_Pot=-13311.73727539 kJ mol^-1, Unit is Angstrom
 O     -0.0002369457     -0.0000000000     -0.0685735399
 H      0.7901196557     -0.0000000000      0.5032665914
 H     -0.7863588480      0.0000000000      0.5004643528
3
# ORCA AIMD Position Step 114, t=57.00 fs, E_Pot=-13312.45672661 kJ mol^-1, Unit is Angstrom
 O     -0.0002503392     -0.0000000000     -0.0698895704
 H      0.7714067797     -0.0000000000      0.5137259758
 H     -0.7674333896      0.0000000000      0.5108930344
3
# ORCA AIMD Position Step 115, t=57.50 fs, E_Pot=-13311.74665680 kJ mol^-1, Unit is Angstrom
 O     -0.0002359770     -0.0000000000     -0.0711321753
 H      0.7523364402     -0.0000000000      0.5234374226
 H     -0.7485910084      0.0000000000      0.5209042436
3
# ORCA AIMD Position Step 116, t=58.00 fs, E_Pot=-13309.66990222 kJ mol^-1, Unit is Angstrom
 O     -0.0001946088     -0.0000000000     -0.0723477267
 H      0.7338802497      0.0000000000      0.5327667403
 H     -0.7307914146      0.0000000000      0.5308681862
3
# ORCA AIMD Position Step 117, t=58.50 fs, E_Pot=-13306.69092103 kJ mol^-1, Unit is Angstrom
 O     -0.0001307573     -0.0000000000     -0.0735722067
 H      0.7171735444      0.0000000000      0.5420220535
 H     -0.7150981616      0.0000000000      0.5410478482
3
# ORCA AIMD Position Step 118, t=59.00 fs, E_Pot=-13303.44584849 kJ mol^-1, Unit is Angstrom
 O     -0.0000511438     -0.0000000000     -0.0748572825
 H      0.7029034874      0.0000000000      0.5516517801
 H     -0.7020917315      0.0000000000      0.5518148762
3
# ORCA AIMD Position Step 119, t=59.50 fs, E_Pot=-13300.66591102 kJ mol^-1, Unit is Angstrom
 O      0.0000317166     -0.0000000000     -0.0761801215
 H      0.6921720271      0.0000000000      0.5615576117
 H     -0.6926754336      0.0000000000      0.5629051763
3
# ORCA AIMD Position Step 120, t=60.00 fs, E_Pot=-13298.71029929 kJ mol^-1, Unit is Angstrom
 O      0.0001060946     -0.0000000000     -0.0775099925
 H      0.6854235722      0.0000000000      0.5715775331
 H     -0.6871075078      0.0000000000      0.5739929988
3
# ORCA AIMD Position Step 121, t=60.50 fs, E_Pot=-13297.50175934 kJ mol^-1, Unit is Angstrom
 O      0.0001632865     -0.0000000000     -0.0788064151
 H      0.6825981677      0.0000000000      0.5814542201
 H     -0.6851898543      0.0000000000      0.5846931631
3
# ORCA AIMD Position Step 122, t=61.00 fs, E_Pot=-13296.72621861 kJ mol^-1, Unit is Angstrom
 O      0.0001980035     -0.0000000000     -0.0800151509
 H      0.6833488976      0.0000000000      0.5907981119
 H     -0.6864916135      0.0000000000      0.5945343533
3
# ORCA AIMD Position Step 123, t=61.50 fs, E_Pot=-13296.10565702 kJ mol^-1, Unit is Angstrom
 O      0.0002076114     -0.0000000000     -0.0810501178
 H      0.6871465737      0.0000000000      0.5989473495
 H     -0.6904417862      0.0000000000      0.6028121362
3
# ORCA AIMD Position Step 124, t=62.00 fs, E_Pot=-13295.53981323 kJ mol^-1, Unit is Angstrom
 O      0.0001925891     -0.0000000000     -0.0818397165
 H      0.6934091221      0.0000000000      0.6053312469
 H     -0.6964659002      0.0000000000      0.6089607682
3
# ORCA AIMD Position Step 125, t=62.50 fs, E_Pot=-13295.18881695 kJ mol^-1, Unit is Angstrom
 O      0.0001559891     -0.0000000000     -0.0822840171
 H      0.7012844420      0.0000000000      0.6091340763
 H     -0.7037603055      0.0000000000      0.6122098870
3
# ORCA AIMD Position Step 126, t=63.00 fs, E_Pot=-13295.38853323 kJ mol^-1, Unit is Angstrom
 O      0.0001051302     -0.0000000000     -0.0823043947
 H      0.7095361306      0.0000000000      0.6096770175
 H     -0.7112047599      0.0000000000      0.6119903802
3
# ORCA AIMD Position Step 127, t=63.50 fs, E_Pot=-13296.43942827 kJ mol^-1, Unit is Angstrom
 O      0.0000398891     -0.0000000000     -0.0818680889
 H      0.7184430619      0.0000000000      0.6067014041
 H     -0.7190761828      0.0000000000      0.6080409384
3
# ORCA AIMD Position Step 128, t=64.00 fs, E_Pot=-13298.39603517 kJ mol^-1, Unit is Angstrom
 O     -0.0000296755     -0.0000000000     -0.0809853115
 H      0.7269216968      0.0000000000      0.6002141570
 H     -0.7264506870      0.0000000000      0.6005167208
3
# ORCA AIMD Position Step 129, t=64.50 fs, E_Pot=-13301.06024661 kJ mol^-1, Unit is Angstrom
 O     -0.0000942142     -0.0000000000     -0.0797275303
 H      0.7342603796      0.0000000000      0.5907147935
 H     -0.7327650101      0.0000000000      0.5900525510
3
# ORCA AIMD Position Step 130, t=65.00 fs, E_Pot=-13304.29805533 kJ mol^-1, Unit is Angstrom
 O     -0.0001525820     -0.0000000000     -0.0780503278
 H      0.7408550834      0.0000000000      0.5778456639
 H     -0.7384332976      0.0000000000      0.5763010833
3
# ORCA AIMD Position Step 131, t=65.50 fs, E_Pot=-13307.51607914 kJ mol^-1, Unit is Angstrom
 O     -0.0001971634     -0.0000000000     -0.0760626492
 H      0.7465260921      0.0000000000      0.5624193758
 H     -0.7433967096      0.0000000000      0.5601788891
3
# ORCA AIMD Position Step 132, t=66.00 fs, E_Pot=-13310.25679566 kJ mol^-1, Unit is Angstrom
 O     -0.0002240929     -0.0000000000     -0.0737579449
 H      0.7516936244      0.0000000000      0.5443627175
 H     -0.7481368171      0.0000000000      0.5416552263
3
# ORCA AIMD Position Step 133, t=66.50 fs, E_Pot=-13311.92594006 kJ mol^-1, Unit is Angstrom
 O     -0.0002276111     -0.0000000000     -0.0712736463
 H      0.7565983361      0.0000000000      0.5247316578
 H     -0.7529856882      0.0000000000      0.5218554393
3
# ORCA AIMD Position Step 134, t=67.00 fs, E_Pot=-13312.25920850 kJ mol^-1, Unit is Angstrom
 O     -0.0002041454     -0.0000000000     -0.0686491849
 H      0.7618573521      0.0000000000      0.5038236571
 H     -0.7586171522      0.0000000000      0.5011079263
3
# ORCA AIMD Position Step 135, t=67.50 fs, E_Pot=-13311.39379553 kJ mol^-1, Unit is Angstrom
 O     -0.0001552647     -0.0000000000     -0.0661764099
 H      0.7676665344      0.0000000000      0.4839663802
 H     -0.7652021692     -0.0000000000      0.4817172596
3
# ORCA AIMD Position Step 136, t=68.00 fs, E_Pot=-13309.79144932 kJ mol^-1, Unit is Angstrom
 O     -0.0000825699     -0.0000000000     -0.0638146524
 H      0.7748667305      0.0000000000      0.4648554857
 H     -0.7735561794     -0.0000000000      0.4633422827
3
# ORCA AIMD Position Step 137, t=68.50 fs, E_Pot=-13308.01673199 kJ mol^-1, Unit is Angstrom
 O      0.0000035997      0.0000000000     -0.0617024065
 H      0.7836506131      0.0000000000      0.4476515696
 H     -0.7837077484     -0.0000000000      0.4470205804
3
# ORCA AIMD Position Step 138, t=69.00 fs, E_Pot=-13306.38543248 kJ mol^-1, Unit is Angstrom
 O      0.0000918515      0.0000000000     -0.0598735371
 H      0.7941678288      0.0000000000      0.4326866017
 H     -0.7956256981     -0.0000000000      0.4329576901
3
# ORCA AIMD Position Step 139, t=69.50 fs, E_Pot=-13304.94883585 kJ mol^-1, Unit is Angstrom
 O      0.0001662811      0.0000000000     -0.0584096555
 H      0.8057564440      0.0000000000      0.4206890046
 H     -0.8083956619     -0.0000000000      0.4217205243
3
# ORCA AIMD Position Step 140, t=70.00 fs, E_Pot=-13303.42588399 kJ mol^-1, Unit is Angstrom
 O      0.0002191856      0.0000000000     -0.0572488367
 H      0.8182184726     -0.0000000000      0.4112020207
 H     -0.8216973921     -0.0000000000      0.4127829639
3
# ORCA AIMD Position Step 141, t=70.50 fs, E_Pot=-13301.59781254 kJ mol^-1, Unit is Angstrom
 O      0.0002440725      0.0000000000     -0.0563686989
 H      0.8307260003     -0.0000000000      0.4040752768
 H     -0.8345999256     -0.0000000000      0.4059401393
3
# ORCA AIMD Position Step 142, t=71.00 fs, E_Pot=-13299.55842558 kJ mol^-1, Unit is Angstrom
 O      0.0002388550      0.0000000000     -0.0557615812
 H      0.8419625811     -0.0000000000      0.3992549782
 H     -0.8457536942     -0.0000000000      0.4011242524
3
# ORCA AIMD Position Step 143, t=71.50 fs, E_Pot=-13297.40530640 kJ mol^-1, Unit is Angstrom
 O      0.0002054145      0.0000000000     -0.0553488179
 H      0.8518988927     -0.0000000000      0.3961036861
 H     -0.8551592361     -0.0000000000      0.3977241550
3
# ORCA AIMD Position Step 144, t=72.00 fs, E_Pot=-13295.59627725 kJ mol^-1, Unit is Angstrom
 O      0.0001497876      0.0000000000     -0.0551196042
 H      0.8593772793     -0.0000000000      0.3945079711
 H     -0.8617547115     -0.0000000000      0.3956817841
3
# ORCA AIMD Position Step 145, t=72.50 fs, E_Pot=-13294.52449408 kJ mol^-1, Unit is Angstrom
 O      0.0000789020      0.0000000000     -0.0550503665
 H      0.8638503198     -0.0000000000      0.3942492661
 H     -0.8651026544     -0.0000000000      0.3948415469
3
# ORCA AIMD Position Step 146, t=73.00 fs, E_Pot=-13294.40420254 kJ mol^-1, Unit is Angstrom
 O     -0.0000047296      0.0000000000     -0.0551266184
 H      0.8651844308     -0.0000000000      0.3951997861
 H     -0.8651093624     -0.0000000000      0.3951012988
3
# ORCA AIMD Position Step 147, t=73.50 fs, E_Pot=-13295.46529105 kJ mol^-1, Unit is Angstrom
 O     -0.0001157185      0.0000000000     -0.0553919742
 H      0.8629259978     -0.0000000000      0.3977637183
 H     -0.8610893111     -0.0000000000      0.3967491010
3
# ORCA AIMD Position Step 148, t=74.00 fs, E_Pot=-13297.43560272 kJ mol^-1, Unit is Angstrom
 O     -0.0002182493      0.0000000000     -0.0558126678
 H      0.8571535324     -0.0000000000      0.4015216498
 H     -0.8536894739     -0.0000000000      0.3996684275
3
# ORCA AIMD Position Step 149, t=74.50 fs, E_Pot=-13299.76688725 kJ mol^-1, Unit is Angstrom
 O     -0.0002914388      0.0000000000     -0.0563574318
 H      0.8487992466     -0.0000000000      0.4061351783
 H     -0.8441735238     -0.0000000000      0.4037014064
3
# ORCA AIMD Position Step 150, t=75.00 fs, E_Pot=-13302.24494959 kJ mol^-1, Unit is Angstrom
 O     -0.0003331492      0.0000000000     -0.0570913444
 H      0.8377056687     -0.0000000000      0.4121054493
 H     -0.8324179174     -0.0000000000      0.4093798142
3
# ORCA AIMD Position Step 151, t=75.50 fs, E_Pot=-13304.45009063 kJ mol^-1, Unit is Angstrom
 O     -0.0003356969      0.0000000000     -0.0580285759
 H      0.8247768925     -0.0000000000      0.4195068894
 H     -0.8194487034     -0.0000000000      0.4168541343
3
# ORCA AIMD Position Step 152, t=76.00 fs, E_Pot=-13306.20713862 kJ mol^-1, Unit is Angstrom
 O     -0.0002969940      0.0000000000     -0.0591925911
 H      0.8109390817     -0.0000000000      0.4285109551
 H     -0.8062251866     -0.0000000000      0.4263253455
3
# ORCA AIMD Position Step 153, t=76.50 fs, E_Pot=-13307.59460389 kJ mol^-1, Unit is Angstrom
 O     -0.0002210412      0.0000000000     -0.0606035562
 H      0.7971367357     -0.0000000000      0.4392909433
 H     -0.7936283653     -0.0000000000      0.4379402286
3
# ORCA AIMD Position Step 154, t=77.00 fs, E_Pot=-13308.84692674 kJ mol^-1, Unit is Angstrom
 O     -0.0001163001      0.0000000000     -0.0623001912
 H      0.7839537898     -0.0000000000      0.4521897194
 H     -0.7821078716     -0.0000000000      0.4519704837
3
# ORCA AIMD Position Step 155, t=77.50 fs, E_Pot=-13310.06236676 kJ mol^-1, Unit is Angstrom
 O     -0.0000027922      0.0000000000     -0.0641902339
 H      0.7726421448     -0.0000000000      0.4665759217
 H     -0.7725978271     -0.0000000000      0.4675830849
3
# ORCA AIMD Position Step 156, t=78.00 fs, E_Pot=-13311.20411227 kJ mol^-1, Unit is Angstrom
 O      0.0001069727      0.0000000000     -0.0663018604
 H      0.7631093664     -0.0000000000      0.4827398503
 H     -0.7648072391     -0.0000000000      0.4849349426
3
# ORCA AIMD Position Step 157, t=78.50 fs, E_Pot=-13311.92167667 kJ mol^-1, Unit is Angstrom
 O      0.0001956210      0.0000000000     -0.0685143707
 H      0.7556065105     -0.0000000000      0.4998234052
 H     -0.7587114111     -0.0000000000      0.5029684029
3
# ORCA AIMD Position Step 158, t=79.00 fs, E_Pot=-13311.87450246 kJ mol^-1, Unit is Angstrom
 O      0.0002538287      0.0000000000     -0.0707429980
 H      0.7498363515     -0.0000000000      0.5172139041
 H     -0.7538651268     -0.0000000000      0.5209507305
3
# ORCA AIMD Position Step 159, t=79.50 fs, E_Pot=-13310.88590567 kJ mol^-1, Unit is Angstrom
 O      0.0002782631      0.0000000000     -0.0729101909
 H      0.7453067839     -0.0000000000      0.5343232404
 H     -0.7497233826     -0.0000000000      0.5382391317
3
# ORCA AIMD Position Step 160, t=80.00 fs, E_Pot=-13309.01336201 kJ mol^-1, Unit is Angstrom
 O      0.0002700162      0.0000000000     -0.0749508028
 H      0.7414673384     -0.0000000000      0.5506349262
 H     -0.7457530426     -0.0000000000      0.5543160865
3
# ORCA AIMD Position Step 161, t=80.50 fs, E_Pot=-13306.53235189 kJ mol^-1, Unit is Angstrom
 O      0.0002328720      0.0000000000     -0.0767953590
 H      0.7378307115     -0.0000000000      0.5655792269
 H     -0.7415268616     -0.0000000000      0.5686486252
3
# ORCA AIMD Position Step 162, t=81.00 fs, E_Pot=-13303.86272719 kJ mol^-1, Unit is Angstrom
 O      0.0001724944      0.0000000000     -0.0783732203
 H      0.7340195165     -0.0000000000      0.5785623305
 H     -0.7367573522     -0.0000000000      0.5807093734
3
# ORCA AIMD Position Step 163, t=81.50 fs, E_Pot=-13301.40144143 kJ mol^-1, Unit is Angstrom
 O      0.0000945902      0.0000000000     -0.0796461799
 H      0.7297217431     -0.0000000000      0.5892460251
 H     -0.7312230808     -0.0000000000      0.5902301234
3
# ORCA AIMD Position Step 164, t=82.00 fs, E_Pot=-13299.63338734 kJ mol^-1, Unit is Angstrom
 O      0.0000108130      0.0000000000     -0.0805052114
 H      0.7250639082     -0.0000000000      0.5966839649
 H     -0.7252355332     -0.0000000000      0.5964267536
3
# ORCA AIMD Position Step 165, t=82.50 fs, E_Pot=-13298.70971394 kJ mol^-1, Unit is Angstrom
 O     -0.0000723182      0.0000000000     -0.0809476300
 H      0.7200394954     -0.0000000000      0.6008103664
 H     -0.7188916598     -0.0000000000      0.5993224297
3
# ORCA AIMD Position Step 166, t=83.00 fs, E_Pot=-13298.58112290 kJ mol^-1, Unit is Angstrom
 O     -0.0001500190      0.0000000000     -0.0809848645
 H      0.7146748141     -0.0000000000      0.6016829995
 H     -0.7122937092     -0.0000000000      0.5990407839
3
# ORCA AIMD Position Step 167, t=83.50 fs, E_Pot=-13299.05356295 kJ mol^-1, Unit is Angstrom
 O     -0.0002176524      0.0000000000     -0.0806214718
 H      0.7090732347      0.0000000000      0.5993056268
 H     -0.7056186505     -0.0000000000      0.5956503782
3
# ORCA AIMD Position Step 168, t=84.00 fs, E_Pot=-13299.79914298 kJ mol^-1, Unit is Angstrom
 O     -0.0002638414      0.0000000000     -0.0799030664
 H      0.7039973232      0.0000000000      0.5939572635
 H     -0.6998096268     -0.0000000000      0.5895961951
3
# ORCA AIMD Position Step 169, t=84.50 fs, E_Pot=-13300.53629366 kJ mol^-1, Unit is Angstrom
 O     -0.0002792367     -0.0000000000     -0.0789486175
 H      0.7003822570      0.0000000000      0.5865133929
 H     -0.6959502059     -0.0000000000      0.5818910286
3
# ORCA AIMD Position Step 170, t=85.00 fs, E_Pot=-13301.25209997 kJ mol^-1, Unit is Angstrom
 O     -0.0002613261     -0.0000000000     -0.0778733369
 H      0.6988441215      0.0000000000      0.5778707267
 H     -0.6946963477      0.0000000000      0.5734668156
3
# ORCA AIMD Position Step 171, t=85.50 fs, E_Pot=-13302.16474967 kJ mol^-1, Unit is Angstrom
 O     -0.0002100674     -0.0000000000     -0.0766859920
 H      0.6997413246      0.0000000000      0.5681019995
 H     -0.6964071307      0.0000000000      0.5643899762
3
# ORCA AIMD Position Step 172, t=86.00 fs, E_Pot=-13303.49544050 kJ mol^-1, Unit is Angstrom
 O     -0.0001295663     -0.0000000000     -0.0754466330
 H      0.7035051214      0.0000000000      0.5577161024
 H     -0.7014486426      0.0000000000      0.5551047393
3
# ORCA AIMD Position Step 173, t=86.50 fs, E_Pot=-13305.34217700 kJ mol^-1, Unit is Angstrom
 O     -0.0000307326     -0.0000000000     -0.0742323309
 H      0.7102721694      0.0000000000      0.5474037232
 H     -0.7097843815      0.0000000000      0.5461436864
3
# ORCA AIMD Position Step 174, t=87.00 fs, E_Pot=-13307.61674764 kJ mol^-1, Unit is Angstrom
 O      0.0000756431     -0.0000000000     -0.0730477134
 H      0.7201269343      0.0000000000      0.5372772781
 H     -0.7213275430      0.0000000000      0.5374678530
3
# ORCA AIMD Position Step 175, t=87.50 fs, E_Pot=-13309.94111624 kJ mol^-1, Unit is Angstrom
 O      0.0001769188     -0.0000000000     -0.0718814001
 H      0.7329136499      0.0000000000      0.5273301359
 H     -0.7357217088      0.0000000000      0.5289032440
3
# ORCA AIMD Position Step 176, t=88.00 fs, E_Pot=-13311.74500177 kJ mol^-1, Unit is Angstrom
 O      0.0002592663     -0.0000000000     -0.0707243599
 H      0.7479990508      0.0000000000      0.5175771863
 H     -0.7521141315      0.0000000000      0.5202916234
3
# ORCA AIMD Position Step 177, t=88.50 fs, E_Pot=-13312.56052788 kJ mol^-1, Unit is Angstrom
 O      0.0003127943     -0.0000000000     -0.0695433582
 H      0.7646549274      0.0000000000      0.5078108767
 H     -0.7696196066      0.0000000000      0.5113130462
3
# ORCA AIMD Position Step 178, t=89.00 fs, E_Pot=-13312.19236643 kJ mol^-1, Unit is Angstrom
 O      0.0003307894     -0.0000000000     -0.0683276594
 H      0.7816470587      0.0000000000      0.4979809675
 H     -0.7868973566      0.0000000000      0.5018473557
3
# ORCA AIMD Position Step 179, t=89.50 fs, E_Pot=-13310.80994065 kJ mol^-1, Unit is Angstrom
 O      0.0003122549     -0.0000000000     -0.0670500542
 H      0.7980208977      0.0000000000      0.4878702058
 H     -0.8029770156      0.0000000000      0.4916799365
3
# ORCA AIMD Position Step 180, t=90.00 fs, E_Pot=-13308.80143232 kJ mol^-1, Unit is Angstrom
 O      0.0002598642     -0.0000000000     -0.0656896712
 H      0.8129429230      0.0000000000      0.4772912151
 H     -0.8170674934      0.0000000000      0.4806668953
3
# ORCA AIMD Position Step 181, t=90.50 fs, E_Pot=-13306.65987684 kJ mol^-1, Unit is Angstrom
 O      0.0001798249     -0.0000000000     -0.0642555927
 H      0.8255342138      0.0000000000      0.4662776229
 H     -0.8283883985      0.0000000000      0.4689187594
3
# ORCA AIMD Position Step 182, t=91.00 fs, E_Pot=-13304.76512190 kJ mol^-1, Unit is Angstrom
 O      0.0000790968     -0.0000000000     -0.0627431897
 H      0.8353714946      0.0000000000      0.4547514897
 H     -0.8366269206      0.0000000000      0.4564399969
3
# ORCA AIMD Position Step 183, t=91.50 fs, E_Pot=-13303.33759668 kJ mol^-1, Unit is Angstrom
 O     -0.0000330694     -0.0000000000     -0.0611754653
 H      0.8421021142      0.0000000000      0.4428454580
 H     -0.8415772362      0.0000000000      0.4434630691
3
# ORCA AIMD Position Step 184, t=92.00 fs, E_Pot=-13302.37028128 kJ mol^-1, Unit is Angstrom
 O     -0.0001464764     -0.0000000000     -0.0595831931
 H      0.8456158576      0.0000000000      0.4307517601
 H     -0.8432909811      0.0000000000      0.4302841843
3
# ORCA AIMD Position Step 185, t=92.50 fs, E_Pot=-13301.65238367 kJ mol^-1, Unit is Angstrom
 O     -0.0002492822     -0.0000000000     -0.0580168549
 H      0.8460085926      0.0000000000      0.4188138820
 H     -0.8420519796      0.0000000000      0.4173611065
3
# ORCA AIMD Position Step 186, t=93.00 fs, E_Pot=-13300.78866980 kJ mol^-1, Unit is Angstrom
 O     -0.0003325389     -0.0000000000     -0.0564790975
 H      0.8435872052      0.0000000000      0.4070124114
 H     -0.8383091403      0.0000000000      0.4047552537
3
# ORCA AIMD Position Step 187, t=93.50 fs, E_Pot=-13299.48246122 kJ mol^-1, Unit is Angstrom
 O     -0.0003793540     -0.0000000000     -0.0551185375
 H      0.8390400315      0.0000000000      0.3964507388
 H     -0.8330189151      0.0000000000      0.3937220869
3
# ORCA AIMD Position Step 188, t=94.00 fs, E_Pot=-13297.71683937 kJ mol^-1, Unit is Angstrom
 O     -0.0003793950     -0.0000000000     -0.0540307717
 H      0.8332800793      0.0000000000      0.3878439163
 H     -0.8272583135      0.0000000000      0.3850638637
3
# ORCA AIMD Position Step 189, t=94.50 fs, E_Pot=-13296.07448266 kJ mol^-1, Unit is Angstrom
 O     -0.0003307394     -0.0000000000     -0.0533684054
 H      0.8277868212      0.0000000000      0.3823953578
 H     -0.8225373170      0.0000000000      0.3799993289
3
# ORCA AIMD Position Step 190, t=95.00 fs, E_Pot=-13294.87398545 kJ mol^-1, Unit is Angstrom
 O     -0.0002277747     -0.0000000000     -0.0530627971
 H      0.8223940638      0.0000000000      0.3795416788
 H     -0.8187788179      0.0000000000      0.3780023858
3
# ORCA AIMD Position Step 191, t=95.50 fs, E_Pot=-13294.88582029 kJ mol^-1, Unit is Angstrom
 O     -0.0000996602     -0.0000000000     -0.0532073626
 H      0.8187158900      0.0000000000      0.3801484914
 H     -0.8171340811      0.0000000000      0.3796901196
3
# ORCA AIMD Position Step 192, t=96.00 fs, E_Pot=-13296.47835151 kJ mol^-1, Unit is Angstrom
 O      0.0000763826     -0.0000000000     -0.0539012918
 H      0.8161302297     -0.0000000000      0.3849092980
 H     -0.8173425760      0.0000000000      0.3859433737
3
# ORCA AIMD Position Step 193, t=96.50 fs, E_Pot=-13299.03419766 kJ mol^-1, Unit is Angstrom
 O      0.0002293587      0.0000000000     -0.0549759294
 H      0.8154689681     -0.0000000000      0.3927913103
 H     -0.8191093546      0.0000000000      0.3951180350
3
# ORCA AIMD Position Step 194, t=97.00 fs, E_Pot=-13302.03957231 kJ mol^-1, Unit is Angstrom
 O      0.0003489564      0.0000000000     -0.0564486912
 H      0.8162606578     -0.0000000000      0.4039845820
 H     -0.8217993028      0.0000000000      0.4073004740
3
# ORCA AIMD Position Step 195, t=97.50 fs, E_Pot=-13304.75357312 kJ mol^-1, Unit is Angstrom
 O      0.0004213833      0.0000000000     -0.0582574040
 H      0.8178155197     -0.0000000000      0.4180645385
 H     -0.8245037260      0.0000000000      0.4219284512
3
# ORCA AIMD Position Step 196, t=98.00 fs, E_Pot=-13306.65971112 kJ mol^-1, Unit is Angstrom
 O      0.0004410542      0.0000000000     -0.0603142254
 H      0.8192429590     -0.0000000000      0.4343676434
 H     -0.8262433826      0.0000000000      0.4382712639
3
# ORCA AIMD Position Step 197, t=98.50 fs, E_Pot=-13307.62016620 kJ mol^-1, Unit is Angstrom
 O      0.0004105982      0.0000000000     -0.0623896247
 H      0.8195598200     -0.0000000000      0.4510626013
 H     -0.8260768437      0.0000000000      0.4545170928
3
# ORCA AIMD Position Step 198, t=99.00 fs, E_Pot=-13307.99513990 kJ mol^-1, Unit is Angstrom
 O      0.0003380205      0.0000000000     -0.0644866780
 H      0.8180557098     -0.0000000000      0.4681439916
 H     -0.8234207789      0.0000000000      0.4707201822
3
# ORCA AIMD Position Step 199, t=99.50 fs, E_Pot=-13308.13842276 kJ mol^-1, Unit is Angstrom
 O      0.0002335050      0.0000000000     -0.0665455594
 H      0.8141533697     -0.0000000000      0.4850903771
 H     -0.8178595672      0.0000000000      0.4864524124
3
# ORCA AIMD Position Step 200, t=100.00 fs, E_Pot=-13308.33435554 kJ mol^-1, Unit is Angstrom
 O      0.0001068767      0.0000000000     -0.0685363096
 H      0.8074063220     -0.0000000000      0.5016159841
 H     -0.8091026711      0.0000000000      0.5015240399
3
# ORCA AIMD Position Step 201, t=100.50 fs, E_Pot=-13308.69974006 kJ mol^-1, Unit is Angstrom
 O     -0.0000294149      0.0000000000     -0.0703994804
 H      0.7976611951     -0.0000000000      0.5171818327
 H     -0.7971943219      0.0000000000      0.5155304816
3
# ORCA AIMD Position Step 202, t=101.00 fs, E_Pot=-13309.15853034 kJ mol^-1, Unit is Angstrom
 O     -0.0001561239      0.0000000000     -0.0720041811
 H      0.7855568994     -0.0000000000      0.5306388131
 H     -0.7830788967      0.0000000000      0.5275433498
3
# ORCA AIMD Position Step 203, t=101.50 fs, E_Pot=-13309.49528164 kJ mol^-1, Unit is Angstrom
 O     -0.0002627525      0.0000000000     -0.0733463863
 H      0.7714478499     -0.0000000000      0.5418905528
 H     -0.7672774361      0.0000000000      0.5375951221
3
# ORCA AIMD Position Step 204, t=102.00 fs, E_Pot=-13309.38900879 kJ mol^-1, Unit is Angstrom
 O     -0.0003385261      0.0000000000     -0.0744179572
 H      0.7561055985     -0.0000000000      0.5508031988
 H     -0.7507325039      0.0000000000      0.5456904755
3
# ORCA AIMD Position Step 205, t=102.50 fs, E_Pot=-13308.51333285 kJ mol^-1, Unit is Angstrom
 O     -0.0003778284      0.0000000000     -0.0752724317
 H      0.7398531154     -0.0000000000      0.5577585609
 H     -0.7338562135      0.0000000000      0.5522973528
3
# ORCA AIMD Position Step 206, t=103.00 fs, E_Pot=-13306.67207906 kJ mol^-1, Unit is Angstrom
 O     -0.0003750194      0.0000000000     -0.0759434058
 H      0.7236306769     -0.0000000000      0.5629798109
 H     -0.7176783604      0.0000000000      0.5577258202
3
# ORCA AIMD Position Step 207, t=103.50 fs, E_Pot=-13304.01941577 kJ mol^-1, Unit is Angstrom
 O     -0.0003288427      0.0000000000     -0.0764705600
 H      0.7086626296     -0.0000000000      0.5667669621
 H     -0.7034432302      0.0000000000      0.5623056719
3
# ORCA AIMD Position Step 208, t=104.00 fs, E_Pot=-13300.99615643 kJ mol^-1, Unit is Angstrom
 O     -0.0002425144      0.0000000000     -0.0769143631
 H      0.6957582597     -0.0000000000      0.5696136334
 H     -0.6919090662      0.0000000000      0.5665030553
3
# ORCA AIMD Position Step 209, t=104.50 fs, E_Pot=-13298.16811910 kJ mol^-1, Unit is Angstrom
 O     -0.0001215012      0.0000000000     -0.0773384507
 H      0.6854323149     -0.0000000000      0.5720548536
 H     -0.6835038454      0.0000000000      0.5707929625
3
# ORCA AIMD Position Step 210, t=105.00 fs, E_Pot=-13296.27724733 kJ mol^-1, Unit is Angstrom
 O      0.0000180110      0.0000000000     -0.0777687703
 H      0.6787309570     -0.0000000000      0.5744097858
 H     -0.6790168281      0.0000000000      0.5752680733
3
# ORCA AIMD Position Step 211, t=105.50 fs, E_Pot=-13295.58429775 kJ mol^-1, Unit is Angstrom
 O      0.0001754487      0.0000000000     -0.0782694118
 H      0.6756550342     -0.0000000000      0.5771837889
 H     -0.6784397605      0.0000000000      0.5804402637
3
# ORCA AIMD Position Step 212, t=106.00 fs, E_Pot=-13296.18196722 kJ mol^-1, Unit is Angstrom
 O      0.0003227291      0.0000000000     -0.0787984295
 H      0.6769555506     -0.0000000000      0.5802514031
 H     -0.6820779153      0.0000000000      0.5857692322
3
# ORCA AIMD Position Step 213, t=106.50 fs, E_Pot=-13297.54728448 kJ mol^-1, Unit is Angstrom
 O      0.0004211623      0.0000000000     -0.0792296610
 H      0.6822531249     -0.0000000000      0.5829025940
 H     -0.6889378232      0.0000000000      0.5899625577
3
# ORCA AIMD Position Step 214, t=107.00 fs, E_Pot=-13299.16731996 kJ mol^-1, Unit is Angstrom
 O      0.0004653488      0.0000000000     -0.0795128896
 H      0.6909538418     -0.0000000000      0.5847754696
 H     -0.6983398692      0.0000000000      0.5925850931
3
# ORCA AIMD Position Step 215, t=107.50 fs, E_Pot=-13300.69354732 kJ mol^-1, Unit is Angstrom
 O      0.0004547237      0.0000000000     -0.0795893568
 H      0.7026207483     -0.0000000000      0.5854018527
 H     -0.7098381337     -0.0000000000      0.5931723986
3
# ORCA AIMD Position Step 216, t=108.00 fs, E_Pot=-13301.90277116 kJ mol^-1, Unit is Angstrom
 O      0.0003941268      0.0000000000     -0.0793907748
 H      0.7155628432     -0.0000000000      0.5842036546
 H     -0.7218184335     -0.0000000000      0.5912186981
3
# ORCA AIMD Position Step 217, t=108.50 fs, E_Pot=-13302.96398196 kJ mol^-1, Unit is Angstrom
 O      0.0002924156      0.0000000000     -0.0788742659
 H      0.7289791181     -0.0000000000      0.5807721611
 H     -0.7336203453     -0.0000000000      0.5864521509
3
# ORCA AIMD Position Step 218, t=109.00 fs, E_Pot=-13304.10520076 kJ mol^-1, Unit is Angstrom
 O      0.0001616229      0.0000000000     -0.0780202811
 H      0.7419941482     -0.0000000000      0.5748644061
 H     -0.7445594304     -0.0000000000      0.5788054380
3
# ORCA AIMD Position Step 219, t=109.50 fs, E_Pot=-13305.51087975 kJ mol^-1, Unit is Angstrom
 O      0.0000141497      0.0000000000     -0.0768258089
 H      0.7539874093      0.0000000000      0.5663689631
 H     -0.7542119939     -0.0000000000      0.5683421900
3
# ORCA AIMD Position Step 220, t=110.00 fs, E_Pot=-13307.20191103 kJ mol^-1, Unit is Angstrom
 O     -0.0001346394      0.0000000000     -0.0753287197
 H      0.7643267734      0.0000000000      0.5554826398
 H     -0.7621897742     -0.0000000000      0.5554666779
3
# ORCA AIMD Position Step 221, t=110.50 fs, E_Pot=-13309.09856412 kJ mol^-1, Unit is Angstrom
 O     -0.0002775828     -0.0000000000     -0.0735003379
 H      0.7731628891      0.0000000000      0.5419329561
 H     -0.7687570882     -0.0000000000      0.5399962419
3
# ORCA AIMD Position Step 222, t=111.00 fs, E_Pot=-13310.87047185 kJ mol^-1, Unit is Angstrom
 O     -0.0004018341     -0.0000000000     -0.0713670562
 H      0.7804432281      0.0000000000      0.5258513633
 H     -0.7740653079     -0.0000000000      0.5222183377
3
# ORCA AIMD Position Step 223, t=111.50 fs, E_Pot=-13312.01327974 kJ mol^-1, Unit is Angstrom
 O     -0.0004861461     -0.0000000000     -0.0691204444
 H      0.7858356430      0.0000000000      0.5086280626
 H     -0.7781195214     -0.0000000000      0.5037833619
3
# ORCA AIMD Position Step 224, t=112.00 fs, E_Pot=-13312.23673950 kJ mol^-1, Unit is Angstrom
 O     -0.0005196518     -0.0000000000     -0.0668218270
 H      0.7897069898      0.0000000000      0.4906942281
 H     -0.7814590635     -0.0000000000      0.4852334870
3
# ORCA AIMD Position Step 225, t=112.50 fs, E_Pot=-13311.35629286 kJ mol^-1, Unit is Angstrom
 O     -0.0004941750     -0.0000000000     -0.0644752805
 H      0.7926477389      0.0000000000      0.4720500971
 H     -0.7848041810     -0.0000000000      0.4666331761
3
# ORCA AIMD Position Step 226, t=113.00 fs, E_Pot=-13309.48717244 kJ mol^-1, Unit is Angstrom
 O     -0.0004069886     -0.0000000000     -0.0622546836
 H      0.7951449118      0.0000000000      0.4540686145
 H     -0.7886851797     -0.0000000000      0.4493692907
3
# ORCA AIMD Position Step 227, t=113.50 fs, E_Pot=-13307.10937144 kJ mol^-1, Unit is Angstrom
 O     -0.0002663738     -0.0000000000     -0.0602866831
 H      0.7978087052      0.0000000000      0.4378091019
 H     -0.7935808145     -0.0000000000      0.4343926528
3
# ORCA AIMD Position Step 228, t=114.00 fs, E_Pot=-13304.62717929 kJ mol^-1, Unit is Angstrom
 O     -0.0000801004     -0.0000000000     -0.0585341385
 H      0.8013987196      0.0000000000      0.4230310567
 H     -0.8001273647     -0.0000000000      0.4213542691
3
# ORCA AIMD Position Step 229, t=114.50 fs, E_Pot=-13302.52135086 kJ mol^-1, Unit is Angstrom
 O      0.0001237830     -0.0000000000     -0.0570898484
 H      0.8063152016      0.0000000000      0.4106147787
 H     -0.8082798889     -0.0000000000      0.4108467392
3
# ORCA AIMD Position Step 230, t=115.00 fs, E_Pot=-13301.12231573 kJ mol^-1, Unit is Angstrom
 O      0.0003015419     -0.0000000000     -0.0560746192
 H      0.8123497725      0.0000000000      0.4017282257
 H     -0.8171358528     -0.0000000000      0.4036195505
3
# ORCA AIMD Position Step 231, t=115.50 fs, E_Pot=-13300.26586337 kJ mol^-1, Unit is Angstrom
 O      0.0004347639     -0.0000000000     -0.0554357379
 H      0.8194967884      0.0000000000      0.3960363929
 H     -0.8263973715     -0.0000000000      0.3991710439
3
# ORCA AIMD Position Step 232, t=116.00 fs, E_Pot=-13299.73507937 kJ mol^-1, Unit is Angstrom
 O      0.0005040888     -0.0000000000     -0.0551563172
 H      0.8270334397      0.0000000000      0.3934901061
 H     -0.8350343487     -0.0000000000      0.3972823589
3
# ORCA AIMD Position Step 233, t=116.50 fs, E_Pot=-13299.30798863 kJ mol^-1, Unit is Angstrom
 O      0.0005083055     -0.0000000000     -0.0551761790
 H      0.8346552086      0.0000000000      0.3936129187
 H     -0.8427230455     -0.0000000000      0.3974747944
3
# ORCA AIMD Position Step 234, t=117.00 fs, E_Pot=-13298.91715245 kJ mol^-1, Unit is Angstrom
 O      0.0004502028     -0.0000000000     -0.0554544170
 H      0.8417215934      0.0000000000      0.3960655147
 H     -0.8488672224     -0.0000000000      0.3994383971
3
# ORCA AIMD Position Step 235, t=117.50 fs, E_Pot=-13298.64690117 kJ mol^-1, Unit is Angstrom
 O      0.0003367840     -0.0000000000     -0.0559623446
 H      0.8476239759      0.0000000000      0.4005881647
 H     -0.8529694196     -0.0000000000      0.4029775871
3
# ORCA AIMD Position Step 236, t=118.00 fs, E_Pot=-13298.71552635 kJ mol^-1, Unit is Angstrom
 O      0.0001840845     -0.0000000000     -0.0566549625
 H      0.8514703340      0.0000000000      0.4067528438
 H     -0.8543921271     -0.0000000000      0.4078061557
3
# ORCA AIMD Position Step 237, t=118.50 fs, E_Pot=-13299.35978483 kJ mol^-1, Unit is Angstrom
 O      0.0000057395     -0.0000000000     -0.0575161506
 H      0.8526853531      0.0000000000      0.4143703211
 H     -0.8527764511     -0.0000000000      0.4138574768
3
# ORCA AIMD Position Step 238, t=119.00 fs, E_Pot=-13300.70170314 kJ mol^-1, Unit is Angstrom
 O     -0.0001740028     -0.0000000000     -0.0584918937
 H      0.8507639567      0.0000000000      0.4229021412
 H     -0.8480021808     -0.0000000000      0.4208126739
3
# ORCA AIMD Position Step 239, t=119.50 fs, E_Pot=-13302.62312223 kJ mol^-1, Unit is Angstrom
 O     -0.0003265699     -0.0000000000     -0.0595007093
 H      0.8457173569      0.0000000000      0.4315704000
 H     -0.8405340323     -0.0000000000      0.4281563602
3
# ORCA AIMD Position Step 240, t=120.00 fs, E_Pot=-13305.04920861 kJ mol^-1, Unit is Angstrom
 O     -0.0004478637      0.0000000000     -0.0606057447
 H      0.8372782436      0.0000000000      0.4408491931
 H     -0.8301697401     -0.0000000000      0.4364167147
3
# ORCA AIMD Position Step 241, t=120.50 fs, E_Pot=-13307.55059230 kJ mol^-1, Unit is Angstrom
 O     -0.0005207350      0.0000000000     -0.0617725682
 H      0.8259691057      0.0000000000      0.4503792588
 H     -0.8177039873     -0.0000000000      0.4454064998
3
# ORCA AIMD Position Step 242, t=121.00 fs, E_Pot=-13309.71628762 kJ mol^-1, Unit is Angstrom
 O     -0.0005359797      0.0000000000     -0.0630001717
 H      0.8123962449      0.0000000000      0.4600998574
 H     -0.8038891629     -0.0000000000      0.4551704528
3
# ORCA AIMD Position Step 243, t=121.50 fs, E_Pot=-13311.19817825 kJ mol^-1, Unit is Angstrom
 O     -0.0004911029      0.0000000000     -0.0642659286
 H      0.7976845250      0.0000000000      0.4698120498
 H     -0.7898897287     -0.0000000000      0.4655483853
3
# ORCA AIMD Position Step 244, t=122.00 fs, E_Pot=-13311.92702531 kJ mol^-1, Unit is Angstrom
 O     -0.0003883306      0.0000000000     -0.0656485582
 H      0.7819438604      0.0000000000      0.4801371948
 H     -0.7757802684     -0.0000000000      0.4771683695
3
# ORCA AIMD Position Step 245, t=122.50 fs, E_Pot=-13311.90497169 kJ mol^-1, Unit is Angstrom
 O     -0.0002401946      0.0000000000     -0.0671473656
 H      0.7662564409     -0.0000000000      0.4911294377
 H     -0.7624440664     -0.0000000000      0.4899652329
3
# ORCA AIMD Position Step 246, t=123.00 fs, E_Pot=-13311.32133003 kJ mol^-1, Unit is Angstrom
 O     -0.0000669360      0.0000000000     -0.0687556068
 H      0.7516333946     -0.0000000000      0.5028432134
 H     -0.7505709846     -0.0000000000      0.5037775000
3
# ORCA AIMD Position Step 247, t=123.50 fs, E_Pot=-13310.42537686 kJ mol^-1, Unit is Angstrom
 O      0.0001057251      0.0000000000     -0.0704407304
 H      0.7389981770     -0.0000000000      0.5151690329
 H     -0.7406762477     -0.0000000000      0.5181980032
3
# ORCA AIMD Position Step 248, t=124.00 fs, E_Pot=-13309.38632627 kJ mol^-1, Unit is Angstrom
 O      0.0002534148      0.0000000000     -0.0721550190
 H      0.7289292977     -0.0000000000      0.5278790309
 H     -0.7329515037     -0.0000000000      0.5326972341
3
# ORCA AIMD Position Step 249, t=124.50 fs, E_Pot=-13308.26542080 kJ mol^-1, Unit is Angstrom
 O      0.0003560959      0.0000000000     -0.0738115195
 H      0.7217600938     -0.0000000000      0.5404150278
 H     -0.7274120559     -0.0000000000      0.5464532528
3
# ORCA AIMD Position Step 250, t=125.00 fs, E_Pot=-13306.94421612 kJ mol^-1, Unit is Angstrom
 O      0.0004098787      0.0000000000     -0.0754377431
 H      0.7169744255     -0.0000000000      0.5530319509
 H     -0.7234800305     -0.0000000000      0.5596477900
3
# ORCA AIMD Position Step 251, t=125.50 fs, E_Pot=-13305.37078510 kJ mol^-1, Unit is Angstrom
 O      0.0004116193      0.0000000000     -0.0769560606
 H      0.7143147208     -0.0000000000      0.5651425964
 H     -0.7208479520     -0.0000000000      0.5716359145
3
# ORCA AIMD Position Step 252, t=126.00 fs, E_Pot=-13303.71278691 kJ mol^-1, Unit is Angstrom
 O      0.0003659689      0.0000000000     -0.0782256840
 H      0.7134596681     -0.0000000000      0.5756012619
 H     -0.7192683360     -0.0000000000      0.5813287434
3
# ORCA AIMD Position Step 253, t=126.50 fs, E_Pot=-13302.04121017 kJ mol^-1, Unit is Angstrom
 O      0.0002778065      0.0000000000     -0.0792828971
 H      0.7138868203     -0.0000000000      0.5846720346
 H     -0.7182961710     -0.0000000000      0.5890380818
3
# ORCA AIMD Position Step 254, t=127.00 fs, E_Pot=-13300.67590449 kJ mol^-1, Unit is Angstrom
 O      0.0001608897      0.0000000000     -0.0800295873
 H      0.7151686187     -0.0000000000      0.5914803160
 H     -0.7177222643     -0.0000000000      0.5940812853
3
# ORCA AIMD Position Step 255, t=127.50 fs, E_Pot=-13299.80480358 kJ mol^-1, Unit is Angstrom
 O      0.0000196587      0.0000000000     -0.0804622159
 H      0.7170357136     -0.0000000000      0.5959716880
 H     -0.7173477372     -0.0000000000      0.5964566043
3
# ORCA AIMD Position Step 256, t=128.00 fs, E_Pot=-13299.60815834 kJ mol^-1, Unit is Angstrom
 O     -0.0001444151      0.0000000000     -0.0805528569
 H      0.7193738653     -0.0000000000      0.5979193093
 H     -0.7170817062     -0.0000000000      0.5959476393
3
# ORCA AIMD Position Step 257, t=128.50 fs, E_Pot=-13300.26156483 kJ mol^-1, Unit is Angstrom
 O     -0.0003252538      0.0000000000     -0.0802378704
 H      0.7221188168     -0.0000000000      0.5967794940
 H     -0.7169563809     -0.0000000000      0.5920879810
3
# ORCA AIMD Position Step 258, t=129.00 fs, E_Pot=-13301.56086575 kJ mol^-1, Unit is Angstrom
 O     -0.0004623526      0.0000000000     -0.0795879390
 H      0.7244845549     -0.0000000000      0.5926667005
 H     -0.7171460840     -0.0000000000      0.5858850473
3
# ORCA AIMD Position Step 259, t=129.50 fs, E_Pot=-13303.45744698 kJ mol^-1, Unit is Angstrom
 O     -0.0005611026      0.0000000000     -0.0785442792
 H      0.7268124879     -0.0000000000      0.5851660287
 H     -0.7179066541     -0.0000000000      0.5768207270
3
# ORCA AIMD Position Step 260, t=130.00 fs, E_Pot=-13305.52815848 kJ mol^-1, Unit is Angstrom
 O     -0.0006020858      0.0000000000     -0.0772058389
 H      0.7290910025     -0.0000000000      0.5749260055
 H     -0.7195346819      0.0000000000      0.5658169940
3
# ORCA AIMD Position Step 261, t=130.50 fs, E_Pot=-13307.43507499 kJ mol^-1, Unit is Angstrom
 O     -0.0005766675      0.0000000000     -0.0756580849
 H      0.7315271784     -0.0000000000      0.5625703758
 H     -0.7223742977      0.0000000000      0.5536066352
3
# ORCA AIMD Position Step 262, t=131.00 fs, E_Pot=-13308.99138874 kJ mol^-1, Unit is Angstrom
 O     -0.0004825171      0.0000000000     -0.0739524676
 H      0.7344926650     -0.0000000000      0.5485019250
 H     -0.7268341421      0.0000000000      0.5406034873
3
# ORCA AIMD Position Step 263, t=131.50 fs, E_Pot=-13310.09216600 kJ mol^-1, Unit is Angstrom
 O     -0.0003289873      0.0000000000     -0.0722177067
 H      0.7382873219     -0.0000000000      0.5338116908
 H     -0.7330656271      0.0000000000      0.5277595553
3
# ORCA AIMD Position Step 264, t=132.00 fs, E_Pot=-13310.83397941 kJ mol^-1, Unit is Angstrom
 O     -0.0001291303      0.0000000000     -0.0704940397
 H      0.7433595384     -0.0000000000      0.5189145693
 H     -0.7413099785      0.0000000000      0.5152985930
3
# ORCA AIMD Position Step 265, t=132.50 fs, E_Pot=-13311.32503456 kJ mol^-1, Unit is Angstrom
 O      0.0000991104      0.0000000000     -0.0687952798
 H      0.7501828043     -0.0000000000      0.5040413211
 H     -0.7517558878      0.0000000000      0.5032090835
3
# ORCA AIMD Position Step 266, t=133.00 fs, E_Pot=-13311.59381469 kJ mol^-1, Unit is Angstrom
 O      0.0003244456      0.0000000000     -0.0671806654
 H      0.7589107887     -0.0000000000      0.4898552682
 H     -0.7640603971      0.0000000000      0.4917679387
3
# ORCA AIMD Position Step 267, t=133.50 fs, E_Pot=-13311.58556322 kJ mol^-1, Unit is Angstrom
 O      0.0005125031      0.0000000000     -0.0657030457
 H      0.7693688644     -0.0000000000      0.4769755345
 H     -0.7775033254      0.0000000000      0.4811948563
3
# ORCA AIMD Position Step 268, t=134.00 fs, E_Pot=-13311.15532923 kJ mol^-1, Unit is Angstrom
 O      0.0006427770      0.0000000000     -0.0643270383
 H      0.7815951624     -0.0000000000      0.4652264144
 H     -0.7917973350      0.0000000000      0.4711039546
3
# ORCA AIMD Position Step 269, t=134.50 fs, E_Pot=-13310.14183089 kJ mol^-1, Unit is Angstrom
 O      0.0006965011      0.0000000000     -0.0630577741
 H      0.7949975411     -0.0000000000      0.4547396842
 H     -0.8060524226      0.0000000000      0.4614448934
3
# ORCA AIMD Position Step 270, t=135.00 fs, E_Pot=-13308.49559109 kJ mol^-1, Unit is Angstrom
 O      0.0006670018     -0.0000000000     -0.0618841900
 H      0.8088388234     -0.0000000000      0.4454490809
 H     -0.8194254920      0.0000000000      0.4521083421
3
# ORCA AIMD Position Step 271, t=135.50 fs, E_Pot=-13306.32305258 kJ mol^-1, Unit is Angstrom
 O      0.0005581296     -0.0000000000     -0.0607846967
 H      0.8223651829     -0.0000000000      0.4371497312
 H     -0.8312238299      0.0000000000      0.4429565075
3
# ORCA AIMD Position Step 272, t=136.00 fs, E_Pot=-13304.05184636 kJ mol^-1, Unit is Angstrom
 O      0.0003903426     -0.0000000000     -0.0598057196
 H      0.8340149087      0.0000000000      0.4301040050
 H     -0.8402104360      0.0000000000      0.4344638852
3
# ORCA AIMD Position Step 273, t=136.50 fs, E_Pot=-13301.91225645 kJ mol^-1, Unit is Angstrom
 O      0.0001734558     -0.0000000000     -0.0588813367
 H      0.8437750295      0.0000000000      0.4237283217
 H     -0.8465281239      0.0000000000      0.4261677422
3
# ORCA AIMD Position Step 274, t=137.00 fs, E_Pot=-13300.24446857 kJ mol^-1, Unit is Angstrom
 O     -0.0000661679     -0.0000000000     -0.0580304767
 H      0.8508717137      0.0000000000      0.4180445786
 H     -0.8498214948      0.0000000000      0.4183466150
3
# ORCA AIMD Position Step 275, t=137.50 fs, E_Pot=-13299.10813971 kJ mol^-1, Unit is Angstrom
 O     -0.0003234679     -0.0000000000     -0.0571975123
 H      0.8553704337      0.0000000000      0.4125817883
 H     -0.8502363441      0.0000000000      0.4105885744
3
# ORCA AIMD Position Step 276, t=138.00 fs, E_Pot=-13298.65077213 kJ mol^-1, Unit is Angstrom
 O     -0.0005453786     -0.0000000000     -0.0564903407
 H      0.8565394302      0.0000000000      0.4079559557
 H     -0.8478831684      0.0000000000      0.4039901626
3
# ORCA AIMD Position Step 277, t=138.50 fs, E_Pot=-13298.75175698 kJ mol^-1, Unit is Angstrom
 O     -0.0007017240     -0.0000000000     -0.0559545339
 H      0.8545025162      0.0000000000      0.4043936843
 H     -0.8433647361      0.0000000000      0.3990480950
3
# ORCA AIMD Position Step 278, t=139.00 fs, E_Pot=-13299.19544920 kJ mol^-1, Unit is Angstrom
 O     -0.0007971975     -0.0000000000     -0.0555340597
 H      0.8490344254      0.0000000000      0.4014701927
 H     -0.8363812883      0.0000000000      0.3952978110
3
# ORCA AIMD Position Step 279, t=139.50 fs, E_Pot=-13299.67191408 kJ mol^-1, Unit is Angstrom
 O     -0.0008024835     -0.0000000000     -0.0553148466
 H      0.8407172549      0.0000000000      0.3997370611
 H     -0.8279802176      0.0000000000      0.3935515866
3
# ORCA AIMD Position Step 280, t=140.00 fs, E_Pot=-13300.04862787 kJ mol^-1, Unit is Angstrom
 O     -0.0007076202     -0.0000000000     -0.0553715718
 H      0.8309788402      0.0000000000      0.3997421087
 H     -0.8197474757      0.0000000000      0.3944468821
3
# ORCA AIMD Position Step 281, t=140.50 fs, E_Pot=-13300.51997917 kJ mol^-1, Unit is Angstrom
 O     -0.0005259750     -0.0000000000     -0.0557395177
 H      0.8211321173      0.0000000000      0.4018224108
 H     -0.8127838289      0.0000000000      0.3982066262
3
# ORCA AIMD Position Step 282, t=141.00 fs, E_Pot=-13301.44124250 kJ mol^-1, Unit is Angstrom
 O     -0.0002658580     -0.0000000000     -0.0564805838
 H      0.8112866041      0.0000000000      0.4065007345
 H     -0.8070668993      0.0000000000      0.4052905227
3
# ORCA AIMD Position Step 283, t=141.50 fs, E_Pot=-13302.98846086 kJ mol^-1, Unit is Angstrom
 O      0.0000199668     -0.0000000000     -0.0575628787
 H      0.8028646731      0.0000000000      0.4137637546
 H     -0.8031815872      0.0000000000      0.4152057129
3
# ORCA AIMD Position Step 284, t=142.00 fs, E_Pot=-13305.06234115 kJ mol^-1, Unit is Angstrom
 O      0.0002759265     -0.0000000000     -0.0589066816
 H      0.7966874888      0.0000000000      0.4232401059
 H     -0.8010670010     -0.0000000000      0.4270582325
3
# ORCA AIMD Position Step 285, t=142.50 fs, E_Pot=-13307.59786880 kJ mol^-1, Unit is Angstrom
 O      0.0005008085     -0.0000000000     -0.0606593490
 H      0.7919910531      0.0000000000      0.4361177216
 H     -0.7999398981     -0.0000000000      0.4419989958
3
# ORCA AIMD Position Step 286, t=143.00 fs, E_Pot=-13309.83768980 kJ mol^-1, Unit is Angstrom
 O      0.0006489600     -0.0000000000     -0.0626264549
 H      0.7889177062      0.0000000000      0.4510852542
 H     -0.7992180146     -0.0000000000      0.4582534143
3
# ORCA AIMD Position Step 287, t=143.50 fs, E_Pot=-13311.36611864 kJ mol^-1, Unit is Angstrom
 O      0.0007145921     -0.0000000000     -0.0648292622
 H      0.7867644891      0.0000000000      0.4683624024
 H     -0.7981065121     -0.0000000000      0.4759392762
3
# ORCA AIMD Position Step 288, t=144.00 fs, E_Pot=-13311.82319074 kJ mol^-1, Unit is Angstrom
 O      0.0006945444     -0.0000000000     -0.0670906939
 H      0.7849069440      0.0000000000      0.4865711451
 H     -0.7959307700     -0.0000000000      0.4936240320
3
# ORCA AIMD Position Step 289, t=144.50 fs, E_Pot=-13311.30303547 kJ mol^-1, Unit is Angstrom
 O      0.0006005289     -0.0000000000     -0.0692861112
 H      0.7826378919      0.0000000000      0.5046701377
 H     -0.7921695013     -0.0000000000      0.5103707542
3
# ORCA AIMD Position Step 290, t=145.00 fs, E_Pot=-13310.18396249 kJ mol^-1, Unit is Angstrom
 O      0.0004519486     -0.0000000000     -0.0712961908
 H      0.7793868642      0.0000000000      0.5216105967
 H     -0.7865602025     -0.0000000000      0.5253343263
3
# ORCA AIMD Position Step 291, t=145.50 fs, E_Pot=-13308.82850710 kJ mol^-1, Unit is Angstrom
 O      0.0002621356      0.0000000000     -0.0731315844
 H      0.7745856946      0.0000000000      0.5374106207
 H     -0.7787463173     -0.0000000000      0.5386657134
3
# ORCA AIMD Position Step 292, t=146.00 fs, E_Pot=-13307.56551884 kJ mol^-1, Unit is Angstrom
 O      0.0000526800      0.0000000000     -0.0747137742
 H      0.7680281376      0.0000000000      0.5513193631
 H     -0.7688642752     -0.0000000000      0.5498695259
3
# ORCA AIMD Position Step 293, t=146.50 fs, E_Pot=-13306.62387368 kJ mol^-1, Unit is Angstrom
 O     -0.0001492258      0.0000000000     -0.0759501778
 H      0.7599446469      0.0000000000      0.5624321184
 H     -0.7575761314     -0.0000000000      0.5583809978
3
# ORCA AIMD Position Step 294, t=147.00 fs, E_Pot=-13306.03827531 kJ mol^-1, Unit is Angstrom
 O     -0.0003206416      0.0000000000     -0.0768037767
 H      0.7507967290      0.0000000000      0.5703071385
 H     -0.7457074984     -0.0000000000      0.5640543200
3
# ORCA AIMD Position Step 295, t=147.50 fs, E_Pot=-13305.63349964 kJ mol^-1, Unit is Angstrom
 O     -0.0004530261      0.0000000000     -0.0773225196
 H      0.7406611287      0.0000000000      0.5752654839
 H     -0.7334706873     -0.0000000000      0.5673294737
3
# ORCA AIMD Position Step 296, t=148.00 fs, E_Pot=-13305.13744834 kJ mol^-1, Unit is Angstrom
 O     -0.0005371176      0.0000000000     -0.0775481534
 H      0.7297497436      0.0000000000      0.5775710995
 H     -0.7212246008     -0.0000000000      0.5686051235
3
# ORCA AIMD Position Step 297, t=148.50 fs, E_Pot=-13304.36114884 kJ mol^-1, Unit is Angstrom
 O     -0.0005594597      0.0000000000     -0.0775160467
 H      0.7191783165      0.0000000000      0.5774104594
 H     -0.7102985593     -0.0000000000      0.5682561649
3
# ORCA AIMD Position Step 298, t=149.00 fs, E_Pot=-13303.17363993 kJ mol^-1, Unit is Angstrom
 O     -0.0005153243      0.0000000000     -0.0772786028
 H      0.7089522237      0.0000000000      0.5751572048
 H     -0.7007729841     -0.0000000000      0.5667407049
3
# ORCA AIMD Position Step 299, t=149.50 fs, E_Pot=-13301.75250227 kJ mol^-1, Unit is Angstrom
 O     -0.0004045065      0.0000000000     -0.0769032217
 H      0.7002444171      0.0000000000      0.5713419809
 H     -0.6938240808     -0.0000000000      0.5645978709
3
# ORCA AIMD Position Step 300, t=150.00 fs, E_Pot=-13300.66978211 kJ mol^-1, Unit is Angstrom
 O     -0.0002443211      0.0000000000     -0.0764833539
 H      0.6944806021      0.0000000000      0.5668292239
 H     -0.6906027322     -0.0000000000      0.5624464756
3
# ORCA AIMD Position Step 301, t=150.50 fs, E_Pot=-13300.46132273 kJ mol^-1, Unit is Angstrom
 O     -0.0000539724      0.0000000000     -0.0760735935
 H      0.6922539407      0.0000000000      0.5621867819
 H     -0.6913972899     -0.0000000000      0.5605851904
3
# ORCA AIMD Position Step 302, t=151.00 fs, E_Pot=-13301.38876943 kJ mol^-1, Unit is Angstrom
 O      0.0001372533      0.0000000000     -0.0757133073
 H      0.6939116555     -0.0000000000      0.5579347950
 H     -0.6960901437     -0.0000000000      0.5591187074
3
# ORCA AIMD Position Step 303, t=151.50 fs, E_Pot=-13303.32222735 kJ mol^-1, Unit is Angstrom
 O      0.0003120664      0.0000000000     -0.0753877891
 H      0.6995057302     -0.0000000000      0.5540748528
 H     -0.7044588554     -0.0000000000      0.5578120168
3
# ORCA AIMD Position Step 304, t=152.00 fs, E_Pot=-13305.67917524 kJ mol^-1, Unit is Angstrom
 O      0.0004431542      0.0000000000     -0.0750812816
 H      0.7085084678     -0.0000000000      0.5506703229
 H     -0.7155422220     -0.0000000000      0.5563516519
3
# ORCA AIMD Position Step 305, t=152.50 fs, E_Pot=-13307.82256593 kJ mol^-1, Unit is Angstrom
 O      0.0005157216      0.0000000000     -0.0747523706
 H      0.7201030777     -0.0000000000      0.5474885325
 H     -0.7282886241     -0.0000000000      0.5543129591
3
# ORCA AIMD Position Step 306, t=153.00 fs, E_Pot=-13309.37114405 kJ mol^-1, Unit is Angstrom
 O      0.0005274203      0.0000000000     -0.0743337286
 H      0.7339226442     -0.0000000000      0.5439992270
 H     -0.7422938715     -0.0000000000      0.5511575687
3
# ORCA AIMD Position Step 307, t=153.50 fs, E_Pot=-13310.09350104 kJ mol^-1, Unit is Angstrom
 O      0.0004797753      0.0000000000     -0.0737891410
 H      0.7484829348     -0.0000000000      0.5398995408
 H     -0.7560979403     -0.0000000000      0.5466135472
3
# ORCA AIMD Position Step 308, t=154.00 fs, E_Pot=-13310.13062487 kJ mol^-1, Unit is Angstrom
 O      0.0003774515      0.0000000000     -0.0730434374
 H      0.7636434670     -0.0000000000      0.5345498748
 H     -0.7696343856     -0.0000000000      0.5401273884
3
# ORCA AIMD Position Step 309, t=154.50 fs, E_Pot=-13309.76345520 kJ mol^-1, Unit is Angstrom
 O      0.0002368249      0.0000000000     -0.0721019310
 H      0.7777584077     -0.0000000000      0.5278863923
 H     -0.7815172985     -0.0000000000      0.5318472587
3
# ORCA AIMD Position Step 310, t=155.00 fs, E_Pot=-13309.37932199 kJ mol^-1, Unit is Angstrom
 O      0.0000748554      0.0000000000     -0.0709713398
 H      0.7898860715     -0.0000000000      0.5198545041
 H     -0.7910741775      0.0000000000      0.5219343763
3
# ORCA AIMD Position Step 311, t=155.50 fs, E_Pot=-13309.22343070 kJ mol^-1, Unit is Angstrom
 O     -0.0000988642      0.0000000000     -0.0696189956
 H      0.7999242593     -0.0000000000      0.5101339744
 H     -0.7983550839      0.0000000000      0.5101904675
3
# ORCA AIMD Position Step 312, t=156.00 fs, E_Pot=-13309.35067482 kJ mol^-1, Unit is Angstrom
 O     -0.0002706340      0.0000000000     -0.0680471568
 H      0.8076177493     -0.0000000000      0.4986623046
 H     -0.8033222406      0.0000000000      0.4967138741
3
# ORCA AIMD Position Step 313, t=156.50 fs, E_Pot=-13309.62383273 kJ mol^-1, Unit is Angstrom
 O     -0.0004149670      0.0000000000     -0.0663788260
 H      0.8124352706     -0.0000000000      0.4862710218
 H     -0.8058489040      0.0000000000      0.4826253713
3
# ORCA AIMD Position Step 314, t=157.00 fs, E_Pot=-13309.78215125 kJ mol^-1, Unit is Angstrom
 O     -0.0005171635      0.0000000000     -0.0646655994
 H      0.8145545803     -0.0000000000      0.4732921073
 H     -0.8063461488      0.0000000000      0.4684119123
3
# ORCA AIMD Position Step 315, t=157.50 fs, E_Pot=-13309.46879974 kJ mol^-1, Unit is Angstrom
 O     -0.0005690134      0.0000000000     -0.0628630464
 H      0.8144110476     -0.0000000000      0.4593387108
 H     -0.8053796540      0.0000000000      0.4537551436
3
# ORCA AIMD Position Step 316, t=158.00 fs, E_Pot=-13308.31538620 kJ mol^-1, Unit is Angstrom
 O     -0.0005567901      0.0000000000     -0.0610443580
 H      0.8124728650     -0.0000000000      0.4449275205
 H     -0.8036354786      0.0000000000      0.4393000681
3
# ORCA AIMD Position Step 317, t=158.50 fs, E_Pot=-13306.38780572 kJ mol^-1, Unit is Angstrom
 O     -0.0004753525      0.0000000000     -0.0594309622
 H      0.8096401872     -0.0000000000      0.4317922758
 H     -0.8020953810      0.0000000000      0.4268274574
3
# ORCA AIMD Position Step 318, t=159.00 fs, E_Pot=-13304.03252938 kJ mol^-1, Unit is Angstrom
 O     -0.0003272019      0.0000000000     -0.0580591268
 H      0.8067326095     -0.0000000000      0.4202442647
 H     -0.8015392529      0.0000000000      0.4166016641
3
# ORCA AIMD Position Step 319, t=159.50 fs, E_Pot=-13302.01283695 kJ mol^-1, Unit is Angstrom
 O     -0.0001365908      0.0000000000     -0.0570642803
 H      0.8047771447     -0.0000000000      0.4114804278
 H     -0.8026091725      0.0000000000      0.4095752734
3
# ORCA AIMD Position Step 320, t=160.00 fs, E_Pot=-13300.63610438 kJ mol^-1, Unit is Angstrom
 O      0.0001004483      0.0000000000     -0.0563549195
 H      0.8042500234     -0.0000000000      0.4047665276
 H     -0.8058443418      0.0000000000      0.4050301823
3
# ORCA AIMD Position Step 321, t=160.50 fs, E_Pot=-13300.34449391 kJ mol^-1, Unit is Angstrom
 O      0.0003304154      0.0000000000     -0.0560361713
 H      0.8057613206     -0.0000000000      0.4011878251
 H     -0.8110056815      0.0000000000      0.4035497056
3
# ORCA AIMD Position Step 322, t=161.00 fs, E_Pot=-13300.99955719 kJ mol^-1, Unit is Angstrom
 O      0.0005139417      0.0000000000     -0.0561127232
 H      0.8093555952     -0.0000000000      0.4009641862
 H     -0.8175128903      0.0000000000      0.4049883785
3
# ORCA AIMD Position Step 323, t=161.50 fs, E_Pot=-13302.13395245 kJ mol^-1, Unit is Angstrom
 O      0.0006339210     -0.0000000000     -0.0565646867
 H      0.8148869160     -0.0000000000      0.4040177181
 H     -0.8249485259      0.0000000000      0.4091084221
3
# ORCA AIMD Position Step 324, t=162.00 fs, E_Pot=-13303.11119750 kJ mol^-1, Unit is Angstrom
 O      0.0006665238     -0.0000000000     -0.0572937737
 H      0.8210661864     -0.0000000000      0.4096775265
 H     -0.8316452673      0.0000000000      0.4150206987
3
# ORCA AIMD Position Step 325, t=162.50 fs, E_Pot=-13303.71954193 kJ mol^-1, Unit is Angstrom
 O      0.0006162355     -0.0000000000     -0.0583183966
 H      0.8276332272     -0.0000000000      0.4180743468
 H     -0.8374141326      0.0000000000      0.4228867174
3
# ORCA AIMD Position Step 326, t=163.00 fs, E_Pot=-13303.86480748 kJ mol^-1, Unit is Angstrom
 O      0.0004907312     -0.0000000000     -0.0595767142
 H      0.8335000784      0.0000000000      0.4286850778
 H     -0.8412889752      0.0000000000      0.4322480347
3
# ORCA AIMD Position Step 327, t=163.50 fs, E_Pot=-13303.78270168 kJ mol^-1, Unit is Angstrom
 O      0.0003082789     -0.0000000000     -0.0609806464
 H      0.8375005284      0.0000000000      0.4407268563
 H     -0.8423935386      0.0000000000      0.4424895009
3
# ORCA AIMD Position Step 328, t=164.00 fs, E_Pot=-13303.89797920 kJ mol^-1, Unit is Angstrom
 O      0.0000945351     -0.0000000000     -0.0624286520
 H      0.8386601806      0.0000000000      0.4532713717
 H     -0.8401606448      0.0000000000      0.4529277650
3
# ORCA AIMD Position Step 329, t=164.50 fs, E_Pot=-13304.57938230 kJ mol^-1, Unit is Angstrom
 O     -0.0001285935     -0.0000000000     -0.0638648243
 H      0.8363898446      0.0000000000      0.4657668970
 H     -0.8343488051      0.0000000000      0.4632272001
3
# ORCA AIMD Position Step 330, t=165.00 fs, E_Pot=-13305.97386307 kJ mol^-1, Unit is Angstrom
 O     -0.0003406681     -0.0000000000     -0.0652502259
 H      0.8303687194      0.0000000000      0.4777989954
 H     -0.8249616265      0.0000000000      0.4731842288
3
# ORCA AIMD Position Step 331, t=165.50 fs, E_Pot=-13307.87686155 kJ mol^-1, Unit is Angstrom
 O     -0.0005125957     -0.0000000000     -0.0664926857
 H      0.8209376213      0.0000000000      0.4884840981
 H     -0.8128016902      0.0000000000      0.4822194774
3
# ORCA AIMD Position Step 332, t=166.00 fs, E_Pot=-13309.92774386 kJ mol^-1, Unit is Angstrom
 O     -0.0006311829     -0.0000000000     -0.0676014657
 H      0.8083632924      0.0000000000      0.4978178594
 H     -0.7983451424      0.0000000000      0.4904842998
3
# ORCA AIMD Position Step 333, t=166.50 fs, E_Pot=-13311.62187595 kJ mol^-1, Unit is Angstrom
 O     -0.0006866527     -0.0000000000     -0.0686133256
 H      0.7929042669      0.0000000000      0.5060267056
 H     -0.7820056996      0.0000000000      0.4983357180
3
# ORCA AIMD Position Step 334, t=167.00 fs, E_Pot=-13312.37127954 kJ mol^-1, Unit is Angstrom
 O     -0.0006695182     -0.0000000000     -0.0695331015
 H      0.7756822117      0.0000000000      0.5130870029
 H     -0.7650556033      0.0000000000      0.5058741246
3
# ORCA AIMD Position Step 335, t=167.50 fs, E_Pot=-13311.82605065 kJ mol^-1, Unit is Angstrom
 O     -0.0005771819     -0.0000000000     -0.0704264095
 H      0.7572274389      0.0000000000      0.5194873472
 H     -0.7480663945      0.0000000000      0.5136523873
3
# ORCA AIMD Position Step 336, t=168.00 fs, E_Pot=-13310.00424096 kJ mol^-1, Unit is Angstrom
 O     -0.0004183638     -0.0000000000     -0.0713220314
 H      0.7391529593      0.0000000000      0.5254979781
 H     -0.7325126789     -0.0000000000      0.5218570875
3
# ORCA AIMD Position Step 337, t=168.50 fs, E_Pot=-13307.42290433 kJ mol^-1, Unit is Angstrom
 O     -0.0002119892     -0.0000000000     -0.0722634958
 H      0.7228305731      0.0000000000      0.5315706802
 H     -0.7194658762     -0.0000000000      0.5307273312
3
# ORCA AIMD Position Step 338, t=169.00 fs, E_Pot=-13304.80828629 kJ mol^-1, Unit is Angstrom
 O      0.0000178057      0.0000000000     -0.0733007712
 H      0.7092025734      0.0000000000      0.5382479373
 H     -0.7094851868     -0.0000000000      0.5405137348
3
# ORCA AIMD Position Step 339, t=169.50 fs, E_Pot=-13302.87866620 kJ mol^-1, Unit is Angstrom
 O      0.0002348646      0.0000000000     -0.0744271333
 H      0.6994081151      0.0000000000      0.5457136988
 H     -0.7031358912     -0.0000000000      0.5509256184
3
# ORCA AIMD Position Step 340, t=170.00 fs, E_Pot=-13301.88365111 kJ mol^-1, Unit is Angstrom
 O      0.0004099635      0.0000000000     -0.0756241608
 H      0.6938596652      0.0000000000      0.5540231160
 H     -0.7003666164     -0.0000000000      0.5616154496
3
# ORCA AIMD Position Step 341, t=170.50 fs, E_Pot=-13301.53347672 kJ mol^-1, Unit is Angstrom
 O      0.0005299715      0.0000000000     -0.0769063471
 H      0.6923217278      0.0000000000      0.5633897193
 H     -0.7007334489     -0.0000000000      0.5725997385
3
# ORCA AIMD Position Step 342, t=171.00 fs, E_Pot=-13301.38521542 kJ mol^-1, Unit is Angstrom
 O      0.0005737792      0.0000000000     -0.0780849402
 H      0.6945022447      0.0000000000      0.5724679412
 H     -0.7036092827     -0.0000000000      0.5822281751
3
# ORCA AIMD Position Step 343, t=171.50 fs, E_Pot=-13301.05355271 kJ mol^-1, Unit is Angstrom
 O      0.0005452391      0.0000000000     -0.0791412027
 H      0.6997711857      0.0000000000      0.5810889968
 H     -0.7084252343     -0.0000000000      0.5903721419
3
# ORCA AIMD Position Step 344, t=172.00 fs, E_Pot=-13300.48374050 kJ mol^-1, Unit is Angstrom
 O      0.0004552156      0.0000000000     -0.0799276124
 H      0.7069465230      0.0000000000      0.5880050818
 H     -0.7141717153     -0.0000000000      0.5959379710
3
# ORCA AIMD Position Step 345, t=172.50 fs, E_Pot=-13300.02801171 kJ mol^-1, Unit is Angstrom
 O      0.0003282420      0.0000000000     -0.0803276652
 H      0.7144898062      0.0000000000      0.5921143535
 H     -0.7196996714     -0.0000000000      0.5981783468
3
# ORCA AIMD Position Step 346, t=173.00 fs, E_Pot=-13299.98607629 kJ mol^-1, Unit is Angstrom
 O      0.0001657447      0.0000000000     -0.0803599663
 H      0.7225736235      0.0000000000      0.5935576625
 H     -0.7252043281     -0.0000000000      0.5972477211
3
# ORCA AIMD Position Step 347, t=173.50 fs, E_Pot=-13300.61447098 kJ mol^-1, Unit is Angstrom
 O     -0.0000076934      0.0000000000     -0.0800001944
 H      0.7301815526      0.0000000000      0.5919655965
 H     -0.7300594434     -0.0000000000      0.5931294797
3
# ORCA AIMD Position Step 348, t=174.00 fs, E_Pot=-13302.11311334 kJ mol^-1, Unit is Angstrom
 O     -0.0001990924      0.0000000000     -0.0791844139
 H      0.7378578433      0.0000000000      0.5868863099
 H     -0.7346978442     -0.0000000000      0.5852606786
3
# ORCA AIMD Position Step 349, t=174.50 fs, E_Pot=-13304.29623468 kJ mol^-1, Unit is Angstrom
 O     -0.0003783230      0.0000000000     -0.0779635244
 H      0.7447341668      0.0000000000      0.5785118061
 H     -0.7387294150     -0.0000000000      0.5742571950
3
# ORCA AIMD Position Step 350, t=175.00 fs, E_Pot=-13306.87529012 kJ mol^-1, Unit is Angstrom
 O     -0.0005292731      0.0000000000     -0.0763558525
 H      0.7506983231      0.0000000000      0.5668818094
 H     -0.7422976882     -0.0000000000      0.5603701850
3
# ORCA AIMD Position Step 351, t=175.50 fs, E_Pot=-13309.37112898 kJ mol^-1, Unit is Angstrom
 O     -0.0006335959      0.0000000000     -0.0744156924
 H      0.7557257479      0.0000000000      0.5523101866
 H     -0.7456692983     -0.0000000000      0.5441475401
3
# ORCA AIMD Position Step 352, t=176.00 fs, E_Pot=-13311.20279445 kJ mol^-1, Unit is Angstrom
 O     -0.0006710732      0.0000000000     -0.0723096576
 H      0.7597735836      0.0000000000      0.5359896702
 H     -0.7491222937     -0.0000000000      0.5270410228
3
# ORCA AIMD Position Step 353, t=176.50 fs, E_Pot=-13312.10252289 kJ mol^-1, Unit is Angstrom
 O     -0.0006321809      0.0000000000     -0.0700946991
 H      0.7632746892     -0.0000000000      0.5183268855
 H     -0.7532406991     -0.0000000000      0.5095479329
3
# ORCA AIMD Position Step 354, t=177.00 fs, E_Pot=-13311.99769428 kJ mol^-1, Unit is Angstrom
 O     -0.0005130946      0.0000000000     -0.0678511252
 H      0.7667493777     -0.0000000000      0.4999520440
 H     -0.7586055284     -0.0000000000      0.4923127167
3
# ORCA AIMD Position Step 355, t=177.50 fs, E_Pot=-13311.14410824 kJ mol^-1, Unit is Angstrom
 O     -0.0003276763      0.0000000000     -0.0657719449
 H      0.7706155586     -0.0000000000      0.4824893259
 H     -0.7654146723     -0.0000000000      0.4767746355
3
# ORCA AIMD Position Step 356, t=178.00 fs, E_Pot=-13309.84458859 kJ mol^-1, Unit is Angstrom
 O     -0.0000798458      0.0000000000     -0.0637620277
 H      0.7757710900     -0.0000000000      0.4652290878
 H     -0.7745037760     -0.0000000000      0.4621334201
3
# ORCA AIMD Position Step 357, t=178.50 fs, E_Pot=-13308.52112370 kJ mol^-1, Unit is Angstrom
 O      0.0001826224      0.0000000000     -0.0620206756
 H      0.7823318026     -0.0000000000      0.4500222295
 H     -0.7852303902     -0.0000000000      0.4497014953
3
# ORCA AIMD Position Step 358, t=179.00 fs, E_Pot=-13307.41024263 kJ mol^-1, Unit is Angstrom
 O      0.0004153626      0.0000000000     -0.0606235320
 H      0.7902621419     -0.0000000000      0.4377070300
 H     -0.7968547871     -0.0000000000      0.4398411994
3
# ORCA AIMD Position Step 359, t=179.50 fs, E_Pot=-13306.41392556 kJ mol^-1, Unit is Angstrom
 O      0.0005952816      0.0000000000     -0.0595135111
 H      0.7997204940     -0.0000000000      0.4279434188
 H     -0.8091688172     -0.0000000000      0.4319865312
3
# ORCA AIMD Position Step 360, t=180.00 fs, E_Pot=-13305.30915627 kJ mol^-1, Unit is Angstrom
 O      0.0007013592      0.0000000000     -0.0586580457
 H      0.8104255980     -0.0000000000      0.4205682446
 H     -0.8215575876     -0.0000000000      0.4257837382
3
# ORCA AIMD Position Step 361, t=180.50 fs, E_Pot=-13303.96969737 kJ mol^-1, Unit is Angstrom
 O      0.0007200238      0.0000000000     -0.0580487109
 H      0.8214195261     -0.0000000000      0.4155723140
 H     -0.8328477615     -0.0000000000      0.4211082928
3
# ORCA AIMD Position Step 362, t=181.00 fs, E_Pot=-13302.49315901 kJ mol^-1, Unit is Angstrom
 O      0.0006546810      0.0000000000     -0.0576624677
 H      0.8315593756     -0.0000000000      0.4127496857
 H     -0.8419504884     -0.0000000000      0.4178004608
3
# ORCA AIMD Position Step 363, t=181.50 fs, E_Pot=-13300.98603243 kJ mol^-1, Unit is Angstrom
 O      0.0005129601      0.0000000000     -0.0574370112
 H      0.8407336605     -0.0000000000      0.4115593126
 H     -0.8488753759      0.0000000000      0.4154123822
3
# ORCA AIMD Position Step 364, t=182.00 fs, E_Pot=-13299.75344823 kJ mol^-1, Unit is Angstrom
 O      0.0003135577      0.0000000000     -0.0573492300
 H      0.8480435289     -0.0000000000      0.4117279208
 H     -0.8530203240      0.0000000000      0.4138505096
3
# ORCA AIMD Position Step 365, t=182.50 fs, E_Pot=-13299.11039388 kJ mol^-1, Unit is Angstrom
 O      0.0000811347      0.0000000000     -0.0573798221
 H      0.8527464276     -0.0000000000      0.4129874580
 H     -0.8540342003      0.0000000000      0.4130765295
3
# ORCA AIMD Position Step 366, t=183.00 fs, E_Pot=-13299.19240622 kJ mol^-1, Unit is Angstrom
 O     -0.0002026655      0.0000000000     -0.0575315315
 H      0.8549612239     -0.0000000000      0.4154338818
 H     -0.8517445126      0.0000000000      0.4130380421
3
# ORCA AIMD Position Step 367, t=183.50 fs, E_Pot=-13300.06020094 kJ mol^-1, Unit is Angstrom
 O     -0.0004584124      0.0000000000     -0.0577792294
 H      0.8538074542     -0.0000000000      0.4185129372
 H     -0.8465315216      0.0000000000      0.4138904529
3
# ORCA AIMD Position Step 368, t=184.00 fs, E_Pot=-13301.70045513 kJ mol^-1, Unit is Angstrom
 O     -0.0006926276      0.0000000000     -0.0581677401
 H      0.8489240591     -0.0000000000      0.4225991331
 H     -0.8379306569      0.0000000000      0.4159707091
3
# ORCA AIMD Position Step 369, t=184.50 fs, E_Pot=-13303.57140413 kJ mol^-1, Unit is Angstrom
 O     -0.0008416966      0.0000000000     -0.0586553276
 H      0.8411767865     -0.0000000000      0.4270747139
 H     -0.8278173574      0.0000000000      0.4192341274
3
# ORCA AIMD Position Step 370, t=185.00 fs, E_Pot=-13305.39679747 kJ mol^-1, Unit is Angstrom
 O     -0.0008916715      0.0000000000     -0.0592682284
 H      0.8309862516     -0.0000000000      0.4320739825
 H     -0.8168336199      0.0000000000      0.4239628359
3
# ORCA AIMD Position Step 371, t=185.50 fs, E_Pot=-13306.97252980 kJ mol^-1, Unit is Angstrom
 O     -0.0008353597      0.0000000000     -0.0600388036
 H      0.8189103840     -0.0000000000      0.4378084506
 H     -0.8056515352      0.0000000000      0.4304589554
3
# ORCA AIMD Position Step 372, t=186.00 fs, E_Pot=-13308.20964355 kJ mol^-1, Unit is Angstrom
 O     -0.0006773202     -0.0000000000     -0.0609903267
 H      0.8058105325     -0.0000000000      0.4444736154
 H     -0.7950600897      0.0000000000      0.4388963884
3
# ORCA AIMD Position Step 373, t=186.50 fs, E_Pot=-13309.18257963 kJ mol^-1, Unit is Angstrom
 O     -0.0004327699     -0.0000000000     -0.0621631669
 H      0.7923317952     -0.0000000000      0.4524518123
 H     -0.7854628614      0.0000000000      0.4495335377
3
# ORCA AIMD Position Step 374, t=187.00 fs, E_Pot=-13310.01564359 kJ mol^-1, Unit is Angstrom
 O     -0.0001248203     -0.0000000000     -0.0636102036
 H      0.7789515834     -0.0000000000      0.4622692219
 H     -0.7769704331      0.0000000000      0.4626835299
3
# ORCA AIMD Position Step 375, t=187.50 fs, E_Pot=-13310.74568307 kJ mol^-1, Unit is Angstrom
 O      0.0001893216     -0.0000000000     -0.0652551634
 H      0.7671303145     -0.0000000000      0.4736214538
 H     -0.7701352317      0.0000000000      0.4774401394
3
# ORCA AIMD Position Step 376, t=188.00 fs, E_Pot=-13311.35785866 kJ mol^-1, Unit is Angstrom
 O      0.0004767897     -0.0000000000     -0.0671260998
 H      0.7570059675     -0.0000000000      0.4869162423
 H     -0.7645735847      0.0000000000      0.4938408980
3
# ORCA AIMD Position Step 377, t=188.50 fs, E_Pot=-13311.63557247 kJ mol^-1, Unit is Angstrom
 O      0.0006990014     -0.0000000000     -0.0691650689
 H      0.7488787244      0.0000000000      0.5019247849
 H     -0.7599732915      0.0000000000      0.5111949218
3
# ORCA AIMD Position Step 378, t=189.00 fs, E_Pot=-13311.31027791 kJ mol^-1, Unit is Angstrom
 O      0.0008280456     -0.0000000000     -0.0712594466
 H      0.7428196206      0.0000000000      0.5179327784
 H     -0.7559623803      0.0000000000      0.5284289402
3
# ORCA AIMD Position Step 379, t=189.50 fs, E_Pot=-13310.25608439 kJ mol^-1, Unit is Angstrom
 O      0.0008548868     -0.0000000000     -0.0732782854
 H      0.7385811186      0.0000000000      0.5339716898
 H     -0.7521499021      0.0000000000      0.5444330865
3
# ORCA AIMD Position Step 380, t=190.00 fs, E_Pot=-13308.59608836 kJ mol^-1, Unit is Angstrom
 O      0.0007879295     -0.0000000000     -0.0751015927
 H      0.7357022295      0.0000000000      0.5490503179
 H     -0.7482082661      0.0000000000      0.5582940349
3
# ORCA AIMD Position Step 381, t=190.50 fs, E_Pot=-13306.61784348 kJ mol^-1, Unit is Angstrom
 O      0.0006449647     -0.0000000000     -0.0766639008
 H      0.7336256560      0.0000000000      0.5625479392
 H     -0.7438625519      0.0000000000      0.5695934044
3
# ORCA AIMD Position Step 382, t=191.00 fs, E_Pot=-13304.58477991 kJ mol^-1, Unit is Angstrom
 O      0.0004407902     -0.0000000000     -0.0779685236
 H      0.7318060262      0.0000000000      0.5744083319
 H     -0.7388022584      0.0000000000      0.5784400171
3
# ORCA AIMD Position Step 383, t=191.50 fs, E_Pot=-13302.76613579 kJ mol^-1, Unit is Angstrom
 O      0.0001916699     -0.0000000000     -0.0789920885
 H      0.7298445615      0.0000000000      0.5843450977
 H     -0.7328867516      0.0000000000      0.5847492979
3
# ORCA AIMD Position Step 384, t=192.00 fs, E_Pot=-13301.32575486 kJ mol^-1, Unit is Angstrom
 O     -0.0000927331     -0.0000000000     -0.0797331464
 H      0.7273884778      0.0000000000      0.5922888764
 H     -0.7259166152      0.0000000000      0.5885676066
3
# ORCA AIMD Position Step 385, t=192.50 fs, E_Pot=-13300.52229310 kJ mol^-1, Unit is Angstrom
 O     -0.0003645968     -0.0000000000     -0.0801003671
 H      0.7245109955      0.0000000000      0.5971766583
 H     -0.7187241057      0.0000000000      0.5895083612
3
# ORCA AIMD Position Step 386, t=193.00 fs, E_Pot=-13300.38696320 kJ mol^-1, Unit is Angstrom
 O     -0.0005843132     -0.0000000000     -0.0800834075
 H      0.7214222277      0.0000000000      0.5986441908
 H     -0.7121479947      0.0000000000      0.5877716461
3
# ORCA AIMD Position Step 387, t=193.50 fs, E_Pot=-13300.78201379 kJ mol^-1, Unit is Angstrom
 O     -0.0007289422     -0.0000000000     -0.0797256195
 H      0.7183675605      0.0000000000      0.5968716496
 H     -0.7067977727      0.0000000000      0.5838653662
3
# ORCA AIMD Position Step 388, t=194.00 fs, E_Pot=-13301.56071580 kJ mol^-1, Unit is Angstrom
 O     -0.0007993359     -0.0000000000     -0.0790239679
 H      0.7152616445      0.0000000000      0.5918460462
 H     -0.7025745668      0.0000000000      0.5777543400
3
# ORCA AIMD Position Step 389, t=194.50 fs, E_Pot=-13302.51161023 kJ mol^-1, Unit is Angstrom
 O     -0.0007782069      0.0000000000     -0.0780227271
 H      0.7125561302      0.0000000000      0.5837979241
 H     -0.7002044111      0.0000000000      0.5699107431
3
# ORCA AIMD Position Step 390, t=195.00 fs, E_Pot=-13303.47216634 kJ mol^-1, Unit is Angstrom
 O     -0.0006613679      0.0000000000     -0.0768617906
 H      0.7109870360      0.0000000000      0.5738093963
 H     -0.7004897896      0.0000000000      0.5614728591
3
# ORCA AIMD Position Step 391, t=195.50 fs, E_Pot=-13304.53475286 kJ mol^-1, Unit is Angstrom
 O     -0.0004504443      0.0000000000     -0.0755622945
 H      0.7110611012      0.0000000000      0.5620694850
 H     -0.7039116392     -0.0000000000      0.5525871377
3
# ORCA AIMD Position Step 392, t=196.00 fs, E_Pot=-13305.76566668 kJ mol^-1, Unit is Angstrom
 O     -0.0001770634      0.0000000000     -0.0742610363
 H      0.7133266587      0.0000000000      0.5498902842
 H     -0.7105163041     -0.0000000000      0.5441127373
3
# ORCA AIMD Position Step 393, t=196.50 fs, E_Pot=-13307.32046272 kJ mol^-1, Unit is Angstrom
 O      0.0001443571      0.0000000000     -0.0729251417
 H      0.7183974479      0.0000000000      0.5371170599
 H     -0.7206886879     -0.0000000000      0.5356826115
3
# ORCA AIMD Position Step 394, t=197.00 fs, E_Pot=-13309.01587750 kJ mol^-1, Unit is Angstrom
 O      0.0004514401      0.0000000000     -0.0716764180
 H      0.7262047799      0.0000000000      0.5251358452
 H     -0.7333700487     -0.0000000000      0.5278440530
3
# ORCA AIMD Position Step 395, t=197.50 fs, E_Pot=-13310.65222603 kJ mol^-1, Unit is Angstrom
 O      0.0007118634      0.0000000000     -0.0704877204
 H      0.7369156782      0.0000000000      0.5139324540
 H     -0.7482143904     -0.0000000000      0.5201804087
3
# ORCA AIMD Position Step 396, t=198.00 fs, E_Pot=-13311.85716870 kJ mol^-1, Unit is Angstrom
 O      0.0008925874      0.0000000000     -0.0693413289
 H      0.7502752798      0.0000000000      0.5035596649
 H     -0.7644424491     -0.0000000000      0.5123576445
3
# ORCA AIMD Position Step 397, t=198.50 fs, E_Pot=-13312.26873391 kJ mol^-1, Unit is Angstrom
 O      0.0009701809      0.0000000000     -0.0682191593
 H      0.7655881260      0.0000000000      0.4939984189
 H     -0.7809868612     -0.0000000000      0.5041077869
3
# ORCA AIMD Position Step 398, t=199.00 fs, E_Pot=-13311.70772230 kJ mol^-1, Unit is Angstrom
 O      0.0009371442      0.0000000000     -0.0670824031
 H      0.7821119148      0.0000000000      0.4849620200
 H     -0.7969862891     -0.0000000000      0.4951015653
3
# ORCA AIMD Position Step 399, t=199.50 fs, E_Pot=-13310.24686193 kJ mol^-1, Unit is Angstrom
 O      0.0007990201      0.0000000000     -0.0659083608
 H      0.7987657218      0.0000000000      0.4762195548
 H     -0.8114477886     -0.0000000000      0.4852096027
3
# ORCA AIMD Position Step 400, t=200.00 fs, E_Pot=-13308.35590748 kJ mol^-1, Unit is Angstrom
 O      0.0005835974      0.0000000000     -0.0647515213
 H      0.8135186015      0.0000000000      0.4680453286
 H     -0.8227814732     -0.0000000000      0.4750224446
3
# ORCA AIMD Position Step 401, t=200.50 fs, E_Pot=-13306.43061058 kJ mol^-1, Unit is Angstrom
 O      0.0003083798      0.0000000000     -0.0635592694
 H      0.8261436906     -0.0000000000      0.4599104047
 H     -0.8310383019     -0.0000000000      0.4642339183
3
# ORCA AIMD Position Step 402, t=201.00 fs, E_Pot=-13304.82747106 kJ mol^-1, Unit is Angstrom
 O      0.0000014232      0.0000000000     -0.0623373976
 H      0.8359911103     -0.0000000000      0.4517073131
 H     -0.8360137000     -0.0000000000      0.4530434318
3
# ORCA AIMD Position Step 403, t=201.50 fs, E_Pot=-13303.82812981 kJ mol^-1, Unit is Angstrom
 O     -0.0002897220      0.0000000000     -0.0611749104
 H      0.8421602477     -0.0000000000      0.4439010808
 H     -0.8375617733     -0.0000000000      0.4423986391
3
# ORCA AIMD Position Step 404, t=202.00 fs, E_Pot=-13303.28585268 kJ mol^-1, Unit is Angstrom
 O     -0.0005704228      0.0000000000     -0.0599623329
 H      0.8452184507     -0.0000000000      0.4356460620
 H     -0.8361646862     -0.0000000000      0.4314075990
3
# ORCA AIMD Position Step 405, t=202.50 fs, E_Pot=-13302.98469124 kJ mol^-1, Unit is Angstrom
 O     -0.0008047890      0.0000000000     -0.0587607214
 H      0.8450236507     -0.0000000000      0.4272544063
 H     -0.8322500210     -0.0000000000      0.4207272489
3
# ORCA AIMD Position Step 406, t=203.00 fs, E_Pot=-13302.59517820 kJ mol^-1, Unit is Angstrom
 O     -0.0009604595      0.0000000000     -0.0576285870
 H      0.8417595642     -0.0000000000      0.4190403630
 H     -0.8265151276     -0.0000000000      0.4109720269
3
# ORCA AIMD Position Step 407, t=203.50 fs, E_Pot=-13301.89936793 kJ mol^-1, Unit is Angstrom
 O     -0.0010034872      0.0000000000     -0.0566843010
 H      0.8360900092     -0.0000000000      0.4117879154
 H     -0.8201626372     -0.0000000000      0.4032367455
3
# ORCA AIMD Position Step 408, t=204.00 fs, E_Pot=-13300.92337945 kJ mol^-1, Unit is Angstrom
 O     -0.0009192825      0.0000000000     -0.0559904368
 H      0.8287688369     -0.0000000000      0.4059319973
 H     -0.8141779627     -0.0000000000      0.3980796345
3
# ORCA AIMD Position Step 409, t=204.50 fs, E_Pot=-13299.81722188 kJ mol^-1, Unit is Angstrom
 O     -0.0006951630      0.0000000000     -0.0555622236
 H      0.8200107843     -0.0000000000      0.4015425774
 H     -0.8089771414     -0.0000000000      0.3956724444
3
# ORCA AIMD Position Step 410, t=205.00 fs, E_Pot=-13299.08161452 kJ mol^-1, Unit is Angstrom
 O     -0.0003545644      0.0000000000     -0.0554989343
 H      0.8112059800     -0.0000000000      0.3995148335
 H     -0.8055783261     -0.0000000000      0.3966956585
3
# ORCA AIMD Position Step 411, t=205.50 fs, E_Pot=-13299.24590655 kJ mol^-1, Unit is Angstrom
 O      0.0000784081      0.0000000000     -0.0558713449
 H      0.8030670791     -0.0000000000      0.4005223509
 H     -0.8043115745     -0.0000000000      0.4015990512
3
# ORCA AIMD Position Step 412, t=206.00 fs, E_Pot=-13300.62454370 kJ mol^-1, Unit is Angstrom
 O      0.0004977571      0.0000000000     -0.0566782585
 H      0.7973512994     -0.0000000000      0.4050410196
 H     -0.8052517121     -0.0000000000      0.4098877344
3
# ORCA AIMD Position Step 413, t=206.50 fs, E_Pot=-13303.01726516 kJ mol^-1, Unit is Angstrom
 O      0.0008337854      0.0000000000     -0.0578843333
 H      0.7945298723     -0.0000000000      0.4131212901
 H     -0.8077637340     -0.0000000000      0.4209503111
3
# ORCA AIMD Position Step 414, t=207.00 fs, E_Pot=-13305.77717377 kJ mol^-1, Unit is Angstrom
 O      0.0010416293      0.0000000000     -0.0594242687
 H      0.7943924150     -0.0000000000      0.4244706348
 H     -0.8109251802     -0.0000000000      0.4340428588
3
# ORCA AIMD Position Step 415, t=207.50 fs, E_Pot=-13308.16527737 kJ mol^-1, Unit is Angstrom
 O      0.0011075959      0.0000000000     -0.0612459172
 H      0.7962254425     -0.0000000000      0.4387620609
 H     -0.8138052318      0.0000000000      0.4486646812
3
# ORCA AIMD Position Step 416, t=208.00 fs, E_Pot=-13309.60114566 kJ mol^-1, Unit is Angstrom
 O      0.0010365587      0.0000000000     -0.0633019031
 H      0.7990668194     -0.0000000000      0.4556185481
 H     -0.8155191031      0.0000000000      0.4644408512
3
# ORCA AIMD Position Step 417, t=208.50 fs, E_Pot=-13309.84498775 kJ mol^-1, Unit is Angstrom
 O      0.0008496134      0.0000000000     -0.0654576155
 H      0.8017216671     -0.0000000000      0.4738778842
 H     -0.8152067510      0.0000000000      0.4803970336
3
# ORCA AIMD Position Step 418, t=209.00 fs, E_Pot=-13309.20881998 kJ mol^-1, Unit is Angstrom
 O      0.0005855401      0.0000000000     -0.0675306700
 H      0.8030216083     -0.0000000000      0.4918938108
 H     -0.8123153147      0.0000000000      0.4952846772
3
# ORCA AIMD Position Step 419, t=209.50 fs, E_Pot=-13308.25784037 kJ mol^-1, Unit is Angstrom
 O      0.0002756042      0.0000000000     -0.0694582174
 H      0.8021692495     -0.0000000000      0.5090056457
 H     -0.8065436453      0.0000000000      0.5087669196
3
# ORCA AIMD Position Step 420, t=210.00 fs, E_Pot=-13307.49665590 kJ mol^-1, Unit is Angstrom
 O     -0.0000483927      0.0000000000     -0.0711731444
 H      0.7986298774     -0.0000000000      0.5245047653
 H     -0.7978617867      0.0000000000      0.5204871634
3
# ORCA AIMD Position Step 421, t=210.50 fs, E_Pot=-13307.18793331 kJ mol^-1, Unit is Angstrom
 O     -0.0003658971      0.0000000000     -0.0726701211
 H      0.7920232002     -0.0000000000      0.5382292429
 H     -0.7862156734      0.0000000000      0.5305227358
3
# ORCA AIMD Position Step 422, t=211.00 fs, E_Pot=-13307.35679029 kJ mol^-1, Unit is Angstrom
 O     -0.0006351776     -0.0000000000     -0.0738493850
 H      0.7826830538     -0.0000000000      0.5491369047
 H     -0.7726014994      0.0000000000      0.5383323776
3
# ORCA AIMD Position Step 423, t=211.50 fs, E_Pot=-13307.76277684 kJ mol^-1, Unit is Angstrom
 O     -0.0008365432     -0.0000000000     -0.0747221751
 H      0.7708384906     -0.0000000000      0.5571884363
 H     -0.7575608573      0.0000000000      0.5441337918
3
# ORCA AIMD Position Step 424, t=212.00 fs, E_Pot=-13308.01185654 kJ mol^-1, Unit is Angstrom
 O     -0.0009439599     -0.0000000000     -0.0752746394
 H      0.7576095109     -0.0000000000      0.5621071128
 H     -0.7426269565      0.0000000000      0.5479838413
3
# ORCA AIMD Position Step 425, t=212.50 fs, E_Pot=-13307.71910691 kJ mol^-1, Unit is Angstrom
 O     -0.0009522345     -0.0000000000     -0.0755829000
 H      0.7429777682     -0.0000000000      0.5644426354
 H     -0.7278638793      0.0000000000      0.5505410386
3
# ORCA AIMD Position Step 426, t=213.00 fs, E_Pot=-13306.57949223 kJ mol^-1, Unit is Angstrom
 O     -0.0008545550     -0.0000000000     -0.0756992811
 H      0.7279330441     -0.0000000000      0.5645532302
 H     -0.7143695261      0.0000000000      0.5522776477
3
# ORCA AIMD Position Step 427, t=213.50 fs, E_Pot=-13304.55903022 kJ mol^-1, Unit is Angstrom
 O     -0.0006520439     -0.0000000000     -0.0756926946
 H      0.7132924378     -0.0000000000      0.5629772724
 H     -0.7029431817      0.0000000000      0.5537490645
3
# ORCA AIMD Position Step 428, t=214.00 fs, E_Pot=-13302.05230924 kJ mol^-1, Unit is Angstrom
 O     -0.0003618073     -0.0000000000     -0.0756366902
 H      0.7003620143     -0.0000000000      0.5604046717
 H     -0.6946193999      0.0000000000      0.5554327622
3
# ORCA AIMD Position Step 429, t=214.50 fs, E_Pot=-13299.78175970 kJ mol^-1, Unit is Angstrom
 O     -0.0000128915     -0.0000000000     -0.0756011575
 H      0.6903034890     -0.0000000000      0.5575826908
 H     -0.6900988755      0.0000000000      0.5576907674
3
# ORCA AIMD Position Step 430, t=215.00 fs, E_Pot=-13298.51184096 kJ mol^-1, Unit is Angstrom
 O      0.0003602604     -0.0000000000     -0.0756400594
 H      0.6840484122     -0.0000000000      0.5551745510
 H     -0.6897664744      0.0000000000      0.5607163580
3
# ORCA AIMD Position Step 431, t=215.50 fs, E_Pot=-13298.85333624 kJ mol^-1, Unit is Angstrom
 O      0.0006728015     -0.0000000000     -0.0757731222
 H      0.6829441001     -0.0000000000      0.5539420160
 H     -0.6936228213      0.0000000000      0.5640608699
3
# ORCA AIMD Position Step 432, t=216.00 fs, E_Pot=-13300.76452292 kJ mol^-1, Unit is Angstrom
 O      0.0009338638     -0.0000000000     -0.0760139103
 H      0.6873214984     -0.0000000000      0.5539113217
 H     -0.7021438071      0.0000000000      0.5679133582
3
# ORCA AIMD Position Step 433, t=216.50 fs, E_Pot=-13303.23972006 kJ mol^-1, Unit is Angstrom
 O      0.0010710377     -0.0000000000     -0.0762784561
 H      0.6965880471     -0.0000000000      0.5549334511
 H     -0.7135875831      0.0000000000      0.5710901057
3
# ORCA AIMD Position Step 434, t=217.00 fs, E_Pot=-13305.26905665 kJ mol^-1, Unit is Angstrom
 O      0.0010680252     -0.0000000000     -0.0764687448
 H      0.7091428941      0.0000000000      0.5563420640
 H     -0.7260946150      0.0000000000      0.5727017599
3
# ORCA AIMD Position Step 435, t=217.50 fs, E_Pot=-13306.46975641 kJ mol^-1, Unit is Angstrom
 O      0.0009374644     -0.0000000000     -0.0765107684
 H      0.7242827157      0.0000000000      0.5574446078
 H     -0.7391621729      0.0000000000      0.5722662161
3
# ORCA AIMD Position Step 436, t=218.00 fs, E_Pot=-13306.79736939 kJ mol^-1, Unit is Angstrom
 O      0.0007069860      0.0000000000     -0.0763296678
 H      0.7402362980      0.0000000000      0.5574509820
 H     -0.7514575962      0.0000000000      0.5693854082
3
# ORCA AIMD Position Step 437, t=218.50 fs, E_Pot=-13306.62742758 kJ mol^-1, Unit is Angstrom
 O      0.0004006864      0.0000000000     -0.0758665397
 H      0.7561776480      0.0000000000      0.5557212479
 H     -0.7625373516      0.0000000000      0.5637643624
3
# ORCA AIMD Position Step 438, t=219.00 fs, E_Pot=-13306.44595846 kJ mol^-1, Unit is Angstrom
 O      0.0000554881      0.0000000000     -0.0750966052
 H      0.7707764298      0.0000000000      0.5518123368
 H     -0.7716571380      0.0000000000      0.5554528544
3
# ORCA AIMD Position Step 439, t=219.50 fs, E_Pot=-13306.66217570 kJ mol^-1, Unit is Angstrom
 O     -0.0002966081      0.0000000000     -0.0740141607
 H      0.7832073985      0.0000000000      0.5454715947
 H     -0.7784996280      0.0000000000      0.5446130116
3
# ORCA AIMD Position Step 440, t=220.00 fs, E_Pot=-13307.44965384 kJ mol^-1, Unit is Angstrom
 O     -0.0006304430      0.0000000000     -0.0726164213
 H      0.7930868932      0.0000000000      0.5365209339
 H     -0.7830804875      0.0000000000      0.5313787196
3
# ORCA AIMD Position Step 441, t=220.50 fs, E_Pot=-13308.66340779 kJ mol^-1, Unit is Angstrom
 O     -0.0008988442      0.0000000000     -0.0710203897
 H      0.7996041746      0.0000000000      0.5255989192
 H     -0.7853376985     -0.0000000000      0.5169684832
3
# ORCA AIMD Position Step 442, t=221.00 fs, E_Pot=-13309.99172880 kJ mol^-1, Unit is Angstrom
 O     -0.0010799200      0.0000000000     -0.0692719472
 H      0.8028955541      0.0000000000      0.5129478646
 H     -0.7857550384     -0.0000000000      0.5018682156
3
# ORCA AIMD Position Step 443, t=221.50 fs, E_Pot=-13311.01218046 kJ mol^-1, Unit is Angstrom
 O     -0.0011602636      0.0000000000     -0.0673429184
 H      0.8033725270      0.0000000000      0.4982866514
 H     -0.7849567963     -0.0000000000      0.4859118382
3
# ORCA AIMD Position Step 444, t=222.00 fs, E_Pot=-13311.16965351 kJ mol^-1, Unit is Angstrom
 O     -0.0011182076      0.0000000000     -0.0653075532
 H      0.8014494445      0.0000000000      0.4820971616
 H     -0.7837012276     -0.0000000000      0.4697959639
3
# ORCA AIMD Position Step 445, t=222.50 fs, E_Pot=-13310.04488606 kJ mol^-1, Unit is Angstrom
 O     -0.0009380567      0.0000000000     -0.0632196820
 H      0.7977725914      0.0000000000      0.4647427119
 H     -0.7828837337     -0.0000000000      0.4540116717
3
# ORCA AIMD Position Step 446, t=223.00 fs, E_Pot=-13307.78448820 kJ mol^-1, Unit is Angstrom
 O     -0.0006354408      0.0000000000     -0.0613200672
 H      0.7935981980      0.0000000000      0.4482270047
 H     -0.7835124667     -0.0000000000      0.4403766483
3
# ORCA AIMD Position Step 447, t=223.50 fs, E_Pot=-13305.02355911 kJ mol^-1, Unit is Angstrom
 O     -0.0002372842      0.0000000000     -0.0596907456
 H      0.7901025804      0.0000000000      0.4333619001
 H     -0.7863364004     -0.0000000000      0.4293811201
3
# ORCA AIMD Position Step 448, t=224.00 fs, E_Pot=-13302.80500807 kJ mol^-1, Unit is Angstrom
 O      0.0001831786      0.0000000000     -0.0584868189
 H      0.7886188658      0.0000000000      0.4217589211
 H     -0.7915262803     -0.0000000000      0.4218753467
3
# ORCA AIMD Position Step 449, t=224.50 fs, E_Pot=-13301.58658330 kJ mol^-1, Unit is Angstrom
 O      0.0006042225      0.0000000000     -0.0576321621
 H      0.7899104438      0.0000000000      0.4129304929
 H     -0.7995006783     -0.0000000000      0.4171386410
3
# ORCA AIMD Position Step 450, t=225.00 fs, E_Pot=-13301.55787790 kJ mol^-1, Unit is Angstrom
 O      0.0009430951      0.0000000000     -0.0571821853
 H      0.7944564173      0.0000000000      0.4077164070
 H     -0.8094252460     -0.0000000000      0.4152106850
3
# ORCA AIMD Position Step 451, t=225.50 fs, E_Pot=-13302.27579863 kJ mol^-1, Unit is Angstrom
 O      0.0011315986      0.0000000000     -0.0571330322
 H      0.8017194812      0.0000000000      0.4064069582
 H     -0.8196802407     -0.0000000000      0.4157399746
3
# ORCA AIMD Position Step 452, t=226.00 fs, E_Pot=-13303.06652305 kJ mol^-1, Unit is Angstrom
 O      0.0011592388      0.0000000000     -0.0574151186
 H      0.8109330685      0.0000000000      0.4084924372
 H     -0.8293325352     -0.0000000000      0.4181317778
3
# ORCA AIMD Position Step 453, t=226.50 fs, E_Pot=-13303.39363343 kJ mol^-1, Unit is Angstrom
 O      0.0010350341      0.0000000000     -0.0579833573
 H      0.8216772290      0.0000000000      0.4135672443
 H     -0.8381053156     -0.0000000000      0.4220760687
3
# ORCA AIMD Position Step 454, t=227.00 fs, E_Pot=-13302.99532911 kJ mol^-1, Unit is Angstrom
 O      0.0007827789      0.0000000000     -0.0587634959
 H      0.8324666420      0.0000000000      0.4209300317
 H     -0.8448909268     -0.0000000000      0.4270956605
3
# ORCA AIMD Position Step 455, t=227.50 fs, E_Pot=-13302.13474714 kJ mol^-1, Unit is Angstrom
 O      0.0004422808      0.0000000000     -0.0596729299
 H      0.8417571078      0.0000000000      0.4297386564
 H     -0.8487769994     -0.0000000000      0.4327215940
3
# ORCA AIMD Position Step 456, t=228.00 fs, E_Pot=-13301.39959943 kJ mol^-1, Unit is Angstrom
 O      0.0000613491      0.0000000000     -0.0606289497
 H      0.8481986630      0.0000000000      0.4391106527
 H     -0.8491723972     -0.0000000000      0.4385235661
3
# ORCA AIMD Position Step 457, t=228.50 fs, E_Pot=-13301.29855193 kJ mol^-1, Unit is Angstrom
 O     -0.0003431467      0.0000000000     -0.0616369867
 H      0.8512377411      0.0000000000      0.4490045126
 H     -0.8457913084     -0.0000000000      0.4446292935
3
# ORCA AIMD Position Step 458, t=229.00 fs, E_Pot=-13302.16807880 kJ mol^-1, Unit is Angstrom
 O     -0.0007001662      0.0000000000     -0.0625749058
 H      0.8500520606      0.0000000000      0.4581082245
 H     -0.8389390067     -0.0000000000      0.4504122553
3
# ORCA AIMD Position Step 459, t=229.50 fs, E_Pot=-13304.07126083 kJ mol^-1, Unit is Angstrom
 O     -0.0010027948      0.0000000000     -0.0634896292
 H      0.8443493095      0.0000000000      0.4667464175
 H     -0.8284329264     -0.0000000000      0.4562925737
3
# ORCA AIMD Position Step 460, t=230.00 fs, E_Pot=-13306.60993167 kJ mol^-1, Unit is Angstrom
 O     -0.0012106742      0.0000000000     -0.0643447112
 H      0.8343596172      0.0000000000      0.4744222720
 H     -0.8151437680     -0.0000000000      0.4621886015
3
# ORCA AIMD Position Step 461, t=230.50 fs, E_Pot=-13309.18556863 kJ mol^-1, Unit is Angstrom
 O     -0.0012993576      0.0000000000     -0.0651482717
 H      0.8205646609      0.0000000000      0.4810624726
 H     -0.7999412258     -0.0000000000      0.4683025330
3
# ORCA AIMD Position Step 462, t=231.00 fs, E_Pot=-13311.14468191 kJ mol^-1, Unit is Angstrom
 O     -0.0012538032      0.0000000000     -0.0659348797
 H      0.8035959516      0.0000000000      0.4868436759
 H     -0.7836955571     -0.0000000000      0.4750063907
3
# ORCA AIMD Position Step 463, t=231.50 fs, E_Pot=-13311.93456438 kJ mol^-1, Unit is Angstrom
 O     -0.0010724754      0.0000000000     -0.0667287625
 H      0.7849073611      0.0000000000      0.4919345719
 H     -0.7678850053     -0.0000000000      0.4825160208
3
# ORCA AIMD Position Step 464, t=232.00 fs, E_Pot=-13311.41810145 kJ mol^-1, Unit is Angstrom
 O     -0.0007659391      0.0000000000     -0.0675982906
 H      0.7654089682      0.0000000000      0.4969105445
 H     -0.7532519641     -0.0000000000      0.4913412188
3
# ORCA AIMD Position Step 465, t=232.50 fs, E_Pot=-13309.90345662 kJ mol^-1, Unit is Angstrom
 O     -0.0003748647      0.0000000000     -0.0685772967
 H      0.7469691596      0.0000000000      0.5022575791
 H     -0.7410192985     -0.0000000000      0.5015329926
3
# ORCA AIMD Position Step 466, t=233.00 fs, E_Pot=-13307.93948885 kJ mol^-1, Unit is Angstrom
 O      0.0000682617      0.0000000000     -0.0697569469
 H      0.7301602688      0.0000000000      0.5088740234
 H     -0.7312437203     -0.0000000000      0.5136399847
3
# ORCA AIMD Position Step 467, t=233.50 fs, E_Pot=-13306.30633028 kJ mol^-1, Unit is Angstrom
 O      0.0004808506      0.0000000000     -0.0711047029
 H      0.7170175146      0.0000000000      0.5170072262
 H     -0.7246495863      0.0000000000      0.5268983963
3
# ORCA AIMD Position Step 468, t=234.00 fs, E_Pot=-13305.40391139 kJ mol^-1, Unit is Angstrom
 O      0.0008071469      0.0000000000     -0.0726122509
 H      0.7082256527      0.0000000000      0.5269543903
 H     -0.7210367077      0.0000000000      0.5408790706
3
# ORCA AIMD Position Step 469, t=234.50 fs, E_Pot=-13305.10115641 kJ mol^-1, Unit is Angstrom
 O      0.0010047746      0.0000000000     -0.0742151368
 H      0.7040148744      0.0000000000      0.5384977744
 H     -0.7199626802      0.0000000000      0.5547767300
3
# ORCA AIMD Position Step 470, t=235.00 fs, E_Pot=-13304.89698076 kJ mol^-1, Unit is Angstrom
 O      0.0010558830      0.0000000000     -0.0757919999
 H      0.7040151305      0.0000000000      0.5508111391
 H     -0.7207741311      0.0000000000      0.5674913735
3
# ORCA AIMD Position Step 471, t=235.50 fs, E_Pot=-13304.31106933 kJ mol^-1, Unit is Angstrom
 O      0.0009712432      0.0000000000     -0.0772610189
 H      0.7073409696      0.0000000000      0.5631911784
 H     -0.7227565652      0.0000000000      0.5784276391
3
# ORCA AIMD Position Step 472, t=236.00 fs, E_Pot=-13303.13332770 kJ mol^-1, Unit is Angstrom
 O      0.0007713026      0.0000000000     -0.0785616679
 H      0.7130753512      0.0000000000      0.5750322178
 H     -0.7253174850      0.0000000000      0.5872305318
3
# ORCA AIMD Position Step 473, t=236.50 fs, E_Pot=-13301.55448497 kJ mol^-1, Unit is Angstrom
 O      0.0004872200      0.0000000000     -0.0795889029
 H      0.7201558307      0.0000000000      0.5852893944
 H     -0.7278889986      0.0000000000      0.5932776533
3
# ORCA AIMD Position Step 474, t=237.00 fs, E_Pot=-13300.04215399 kJ mol^-1, Unit is Angstrom
 O      0.0001515187     -0.0000000000     -0.0802643896
 H      0.7276428125      0.0000000000      0.5931167593
 H     -0.7300477214      0.0000000000      0.5961716284
3
# ORCA AIMD Position Step 475, t=237.50 fs, E_Pot=-13299.03161367 kJ mol^-1, Unit is Angstrom
 O     -0.0002233640     -0.0000000000     -0.0805574346
 H      0.7351652864      0.0000000000      0.5981919183
 H     -0.7316200476      0.0000000000      0.5957476874
3
# ORCA AIMD Position Step 476, t=238.00 fs, E_Pot=-13299.00208783 kJ mol^-1, Unit is Angstrom
 O     -0.0005811491     -0.0000000000     -0.0804043824
 H      0.7415860786     -0.0000000000      0.5996095103
 H     -0.7323620665      0.0000000000      0.5919008477
3
# ORCA AIMD Position Step 477, t=238.50 fs, E_Pot=-13300.11213389 kJ mol^-1, Unit is Angstrom
 O     -0.0008952289     -0.0000000000     -0.0797956910
 H      0.7465406853     -0.0000000000      0.5971124971
 H     -0.7323315905      0.0000000000      0.5847366959
3
# ORCA AIMD Position Step 478, t=239.00 fs, E_Pot=-13302.27893203 kJ mol^-1, Unit is Angstrom
 O     -0.0011499309     -0.0000000000     -0.0787070219
 H      0.7499930349     -0.0000000000      0.5904115093
 H     -0.7317413038      0.0000000000      0.5741583023
3
# ORCA AIMD Position Step 479, t=239.50 fs, E_Pot=-13304.95723821 kJ mol^-1, Unit is Angstrom
 O     -0.0013017671     -0.0000000000     -0.0772305958
 H      0.7517015200     -0.0000000000      0.5799374461
 H     -0.7310398417      0.0000000000      0.5611984950
3
# ORCA AIMD Position Step 480, t=240.00 fs, E_Pot=-13307.57901275 kJ mol^-1, Unit is Angstrom
 O     -0.0013275766     -0.0000000000     -0.0754105545
 H      0.7518903548     -0.0000000000      0.5658987483
 H     -0.7308190272      0.0000000000      0.5463494542
3
# ORCA AIMD Position Step 481, t=240.50 fs, E_Pot=-13309.47274128 kJ mol^-1, Unit is Angstrom
 O     -0.0012095586     -0.0000000000     -0.0734247525
 H      0.7510059171     -0.0000000000      0.5495941930
 H     -0.7318077744      0.0000000000      0.5311353129
3
# ORCA AIMD Position Step 482, t=241.00 fs, E_Pot=-13310.38637428 kJ mol^-1, Unit is Angstrom
 O     -0.0009481768      0.0000000000     -0.0713884583
 H      0.7497461001     -0.0000000000      0.5319623755
 H     -0.7346966149      0.0000000000      0.5164470205
3
# ORCA AIMD Position Step 483, t=241.50 fs, E_Pot=-13310.40478764 kJ mol^-1, Unit is Angstrom
 O     -0.0005595210      0.0000000000     -0.0693886136
 H      0.7489558141     -0.0000000000      0.5138214856
 H     -0.7400750842      0.0000000000      0.5028463271
3
# ORCA AIMD Position Step 484, t=242.00 fs, E_Pot=-13309.87023759 kJ mol^-1, Unit is Angstrom
 O     -0.0000843576      0.0000000000     -0.0675219309
 H      0.7495830075     -0.0000000000      0.4962130749
 H     -0.7482440819      0.0000000000      0.4908267053
3
# ORCA AIMD Position Step 485, t=242.50 fs, E_Pot=-13309.21335854 kJ mol^-1, Unit is Angstrom
 O      0.0004269353      0.0000000000     -0.0658242882
 H      0.7525682393     -0.0000000000      0.4797395468
 H     -0.7593445667      0.0000000000      0.4803552090
3
# ORCA AIMD Position Step 486, t=243.00 fs, E_Pot=-13308.86397319 kJ mol^-1, Unit is Angstrom
 O      0.0008625918      0.0000000000     -0.0644705989
 H      0.7583053104     -0.0000000000      0.4664420031
 H     -0.7719963876      0.0000000000      0.4721669632
3
# ORCA AIMD Position Step 487, t=243.50 fs, E_Pot=-13308.86260654 kJ mol^-1, Unit is Angstrom
 O      0.0011904348      0.0000000000     -0.0633702788
 H      0.7673654213     -0.0000000000      0.4557631215
 H     -0.7862600311      0.0000000000      0.4653815382
3
# ORCA AIMD Position Step 488, t=244.00 fs, E_Pot=-13308.89600242 kJ mol^-1, Unit is Angstrom
 O      0.0013604475      0.0000000000     -0.0625227040
 H      0.7793258339     -0.0000000000      0.4479521225
 H     -0.8009188885      0.0000000000      0.4597398088
3
# ORCA AIMD Position Step 489, t=244.50 fs, E_Pot=-13308.50134784 kJ mol^-1, Unit is Angstrom
 O      0.0013572660      0.0000000000     -0.0618787613
 H      0.7935132502     -0.0000000000      0.4426739395
 H     -0.8150558083      0.0000000000      0.4547973187
3
# ORCA AIMD Position Step 490, t=245.00 fs, E_Pot=-13307.37817693 kJ mol^-1, Unit is Angstrom
 O      0.0011902374      0.0000000000     -0.0613927113
 H      0.8086541066     -0.0000000000      0.4394958204
 H     -0.8275455828      0.0000000000      0.4502608405
3
# ORCA AIMD Position Step 491, t=245.50 fs, E_Pot=-13305.55786674 kJ mol^-1, Unit is Angstrom
 O      0.0008857289      0.0000000000     -0.0610068265
 H      0.8236446385     -0.0000000000      0.4378062780
 H     -0.8377029493      0.0000000000      0.4458256109
3
# ORCA AIMD Position Step 492, t=246.00 fs, E_Pot=-13303.47072053 kJ mol^-1, Unit is Angstrom
 O      0.0004908254      0.0000000000     -0.0606855984
 H      0.8368882440     -0.0000000000      0.4370808552
 H     -0.8446786368      0.0000000000      0.4414524927
3
# ORCA AIMD Position Step 493, t=246.50 fs, E_Pot=-13301.71206656 kJ mol^-1, Unit is Angstrom
 O      0.0000584011      0.0000000000     -0.0604027823
 H      0.8471119162     -0.0000000000      0.4368475137
 H     -0.8480388593      0.0000000000      0.4371969705
3
# ORCA AIMD Position Step 494, t=247.00 fs, E_Pot=-13300.64924498 kJ mol^-1, Unit is Angstrom
 O     -0.0003896693      0.0000000000     -0.0601270570
 H      0.8540499031     -0.0000000000      0.4367440258
 H     -0.8478650625      0.0000000000      0.4329241395
3
# ORCA AIMD Position Step 495, t=247.50 fs, E_Pot=-13300.41543362 kJ mol^-1, Unit is Angstrom
 O     -0.0008697007      0.0000000000     -0.0598190691
 H      0.8577860966     -0.0000000000      0.4365252963
 H     -0.8439821861     -0.0000000000      0.4282544788
3
# ORCA AIMD Position Step 496, t=248.00 fs, E_Pot=-13301.04299734 kJ mol^-1, Unit is Angstrom
 O     -0.0012915685      0.0000000000     -0.0595177448
 H      0.8573449757     -0.0000000000      0.4360738763
 H     -0.8368451694     -0.0000000000      0.4239232718
3
# ORCA AIMD Position Step 497, t=248.50 fs, E_Pot=-13302.23480035 kJ mol^-1, Unit is Angstrom
 O     -0.0015889140      0.0000000000     -0.0592645302
 H      0.8526121907     -0.0000000000      0.4354042832
 H     -0.8273929095     -0.0000000000      0.4205738368
3
# ORCA AIMD Position Step 498, t=249.00 fs, E_Pot=-13303.57023219 kJ mol^-1, Unit is Angstrom
 O     -0.0017163031      0.0000000000     -0.0591051673
 H      0.8439479526     -0.0000000000      0.4346617237
 H     -0.8167067485     -0.0000000000      0.4187869853
3
# ORCA AIMD Position Step 499, t=249.50 fs, E_Pot=-13304.64998540 kJ mol^-1, Unit is Angstrom
 O     -0.0016425672      0.0000000000     -0.0591008050
 H      0.8329866804     -0.0000000000      0.4341859404
 H     -0.8069158148     -0.0000000000      0.4191935287
3
# ORCA AIMD Position Step 500, t=250.00 fs, E_Pot=-13305.48296946 kJ mol^-1, Unit is Angstrom
 O     -0.0013710512      0.0000000000     -0.0592932129
 H      0.8200961939     -0.0000000000      0.4343105774
 H     -0.7983348370     -0.0000000000      0.4221227950
3
# ORCA AIMD Position Step 501, t=250.50 fs, E_Pot=-13306.11904445 kJ mol^-1, Unit is Angstrom
 O     -0.0009475544      0.0000000000     -0.0597101400
 H      0.8070530958     -0.0000000000      0.4354713590
 H     -0.7920134905     -0.0000000000      0.4275794903
3
# ORCA AIMD Position Step 502, t=251.00 fs, E_Pot=-13306.76009449 kJ mol^-1, Unit is Angstrom
 O     -0.0003984762      0.0000000000     -0.0604087764
 H      0.7940757784      0.0000000000      0.4382370532
 H     -0.7877511544     -0.0000000000      0.4359025694
3
# ORCA AIMD Position Step 503, t=251.50 fs, E_Pot=-13307.52186020 kJ mol^-1, Unit is Angstrom
 O      0.0001772167      0.0000000000     -0.0613731303
 H      0.7828120194      0.0000000000      0.4429719993
 H     -0.7856248078     -0.0000000000      0.4464738709
3
# ORCA AIMD Position Step 504, t=252.00 fs, E_Pot=-13308.54198254 kJ mol^-1, Unit is Angstrom
 O      0.0007401209      0.0000000000     -0.0626729299
 H      0.7733005947      0.0000000000      0.4504362452
 H     -0.7850478112     -0.0000000000      0.4596400761
3
# ORCA AIMD Position Step 505, t=252.50 fs, E_Pot=-13309.70639556 kJ mol^-1, Unit is Angstrom
 O      0.0011820112      0.0000000000     -0.0642088768
 H      0.7666301837      0.0000000000      0.4604174816
 H     -0.7853910944     -0.0000000000      0.4740374255
3
# ORCA AIMD Position Step 506, t=253.00 fs, E_Pot=-13310.81221591 kJ mol^-1, Unit is Angstrom
 O      0.0014559767      0.0000000000     -0.0659384928
 H      0.7627660589      0.0000000000      0.4728563262
 H     -0.7858753554     -0.0000000000      0.4890510863
3
# ORCA AIMD Position Step 507, t=253.50 fs, E_Pot=-13311.51833956 kJ mol^-1, Unit is Angstrom
 O      0.0015414274      0.0000000000     -0.0677912181
 H      0.7612909628      0.0000000000      0.4873359014
 H     -0.7857565359     -0.0000000000      0.5039780117
3
# ORCA AIMD Position Step 508, t=254.00 fs, E_Pot=-13311.52506113 kJ mol^-1, Unit is Angstrom
 O      0.0014447981      0.0000000000     -0.0696979705
 H      0.7614675956      0.0000000000      0.5033022067
 H     -0.7843994658     -0.0000000000      0.5182757262
3
# ORCA AIMD Position Step 509, t=254.50 fs, E_Pot=-13310.76112849 kJ mol^-1, Unit is Angstrom
 O      0.0011947230      0.0000000000     -0.0715311320
 H      0.7624043239      0.0000000000      0.5195937204
 H     -0.7813669956     -0.0000000000      0.5310801958
3
# ORCA AIMD Position Step 510, t=255.00 fs, E_Pot=-13309.41194012 kJ mol^-1, Unit is Angstrom
 O      0.0008261228      0.0000000000     -0.0732317338
 H      0.7632360217      0.0000000000      0.5355538006
 H     -0.7763482629     -0.0000000000      0.5421121082
3
# ORCA AIMD Position Step 511, t=255.50 fs, E_Pot=-13307.66552994 kJ mol^-1, Unit is Angstrom
 O      0.0003529580      0.0000000000     -0.0748371697
 H      0.7632340220      0.0000000000      0.5514182631
 H     -0.7688361807     -0.0000000000      0.5517291619
3
# ORCA AIMD Position Step 512, t=256.00 fs, E_Pot=-13305.98718183 kJ mol^-1, Unit is Angstrom
 O     -0.0001465204      0.0000000000     -0.0761620248
 H      0.7617623678      0.0000000000      0.5652179537
 H     -0.7594367933     -0.0000000000      0.5589576037
3
# ORCA AIMD Position Step 513, t=256.50 fs, E_Pot=-13304.69376757 kJ mol^-1, Unit is Angstrom
 O     -0.0006226515      0.0000000000     -0.0771522933
 H      0.7584713685      0.0000000000      0.5762047139
 H     -0.7485886287     -0.0000000000      0.5636884082
3
# ORCA AIMD Position Step 514, t=257.00 fs, E_Pot=-13303.91634945 kJ mol^-1, Unit is Angstrom
 O     -0.0010265039      0.0000000000     -0.0777766871
 H      0.7533146247      0.0000000000      0.5838060020
 H     -0.7370219306     -0.0000000000      0.5659975126
3
# ORCA AIMD Position Step 515, t=257.50 fs, E_Pot=-13303.52608040 kJ mol^-1, Unit is Angstrom
 O     -0.0013383292      0.0000000000     -0.0780662779
 H      0.7461584412      0.0000000000      0.5881281105
 H     -0.7249164489     -0.0000000000      0.5662717963
3
# ORCA AIMD Position Step 516, t=258.00 fs, E_Pot=-13303.28590897 kJ mol^-1, Unit is Angstrom
 O     -0.0015212534      0.0000000000     -0.0780386001
 H      0.7372959158      0.0000000000      0.5890518142
 H     -0.7131505458     -0.0000000000      0.5649087906
3
# ORCA AIMD Position Step 517, t=258.50 fs, E_Pot=-13302.99543389 kJ mol^-1, Unit is Angstrom
 O     -0.0015391769      0.0000000000     -0.0777423101
 H      0.7277386108      0.0000000000      0.5867113071
 H     -0.7033087581     -0.0000000000      0.5625465753
3
# ORCA AIMD Position Step 518, t=259.00 fs, E_Pot=-13302.59597575 kJ mol^-1, Unit is Angstrom
 O     -0.0013818547      0.0000000000     -0.0772433064
 H      0.7181697332      0.0000000000      0.5815482754
 H     -0.6962369024     -0.0000000000      0.5597894093
3
# ORCA AIMD Position Step 519, t=259.50 fs, E_Pot=-13302.05816014 kJ mol^-1, Unit is Angstrom
 O     -0.0010302271      0.0000000000     -0.0765534442
 H      0.7084730243      0.0000000000      0.5735060430
 H     -0.6921212361     -0.0000000000      0.5568821324
3
# ORCA AIMD Position Step 520, t=260.00 fs, E_Pot=-13301.66860107 kJ mol^-1, Unit is Angstrom
 O     -0.0005619194      0.0000000000     -0.0758466725
 H      0.7011251145      0.0000000000      0.5645217168
 H     -0.6922063165      0.0000000000      0.5546485605
3
# ORCA AIMD Position Step 521, t=260.50 fs, E_Pot=-13301.73633355 kJ mol^-1, Unit is Angstrom
 O      0.0000090132      0.0000000000     -0.0751266122
 H      0.6965202204      0.0000000000      0.5547150563
 H     -0.6966632783      0.0000000000      0.5530264062
3
# ORCA AIMD Position Step 522, t=261.00 fs, E_Pot=-13302.51130898 kJ mol^-1, Unit is Angstrom
 O      0.0005919701      0.0000000000     -0.0744620988
 H      0.6958076576      0.0000000000      0.5452679479
 H     -0.7052034206      0.0000000000      0.5519263420
3
# ORCA AIMD Position Step 523, t=261.50 fs, E_Pot=-13303.98456809 kJ mol^-1, Unit is Angstrom
 O      0.0010333246      0.0000000000     -0.0739554817
 H      0.6994472946      0.0000000000      0.5380675800
 H     -0.7158482480      0.0000000000      0.5510856723
3
# ORCA AIMD Position Step 524, t=262.00 fs, E_Pot=-13306.13600475 kJ mol^-1, Unit is Angstrom
 O      0.0013457727      0.0000000000     -0.0735101428
 H      0.7078373025      0.0000000000      0.5322197719
 H     -0.7291974393      0.0000000000      0.5498650496
3
# ORCA AIMD Position Step 525, t=262.50 fs, E_Pot=-13308.38963751 kJ mol^-1, Unit is Angstrom
 O      0.0014917671      0.0000000000     -0.0730801456
 H      0.7207792498      0.0000000000      0.5275859330
 H     -0.7444566123      0.0000000000      0.5476739639
3
# ORCA AIMD Position Step 526, t=263.00 fs, E_Pot=-13309.99173923 kJ mol^-1, Unit is Angstrom
 O      0.0014527456      0.0000000000     -0.0726168512
 H      0.7370935021      0.0000000000      0.5238809073
 H     -0.7601515156      0.0000000000      0.5440255700
3
# ORCA AIMD Position Step 527, t=263.50 fs, E_Pot=-13310.52437468 kJ mol^-1, Unit is Angstrom
 O      0.0012420205      0.0000000000     -0.0720606378
 H      0.7553373706      0.0000000000      0.5205221384
 H     -0.7750507497      0.0000000000      0.5385561066
3
# ORCA AIMD Position Step 528, t=264.00 fs, E_Pot=-13310.02587022 kJ mol^-1, Unit is Angstrom
 O      0.0008901679      0.0000000000     -0.0713529671
 H      0.7741609578     -0.0000000000      0.5168308658
 H     -0.7882897232      0.0000000000      0.5310152133
3
# ORCA AIMD Position Step 529, t=264.50 fs, E_Pot=-13308.85020830 kJ mol^-1, Unit is Angstrom
 O      0.0004327046      0.0000000000     -0.0704416637
 H      0.7924629070     -0.0000000000      0.5121580632
 H     -0.7993308055      0.0000000000      0.5212237850
3
# ORCA AIMD Position Step 530, t=265.00 fs, E_Pot=-13307.53251571 kJ mol^-1, Unit is Angstrom
 O     -0.0000767484      0.0000000000     -0.0693210134
 H      0.8087151931     -0.0000000000      0.5061341824
 H     -0.8074970408      0.0000000000      0.5094606785
3
# ORCA AIMD Position Step 531, t=265.50 fs, E_Pot=-13306.48935545 kJ mol^-1, Unit is Angstrom
 O     -0.0006019928      0.0000000000     -0.0679665388
 H      0.8222893782     -0.0000000000      0.4983514891
 H     -0.8127345349      0.0000000000      0.4957451182
3
# ORCA AIMD Position Step 532, t=266.00 fs, E_Pot=-13305.96772278 kJ mol^-1, Unit is Angstrom
 O     -0.0010814505      0.0000000000     -0.0664361842
 H      0.8321226763     -0.0000000000      0.4889256592
 H     -0.8149578682      0.0000000000      0.4808811243
3
# ORCA AIMD Position Step 533, t=266.50 fs, E_Pot=-13305.91026037 kJ mol^-1, Unit is Angstrom
 O     -0.0014714315      0.0000000000     -0.0647651229
 H      0.8378995894     -0.0000000000      0.4779045339
 H     -0.8145449932      0.0000000000      0.4653791250
3
# ORCA AIMD Position Step 534, t=267.00 fs, E_Pot=-13306.01104946 kJ mol^-1, Unit is Angstrom
 O     -0.0017321837      0.0000000000     -0.0629897113
 H      0.8395981679     -0.0000000000      0.4653794793
 H     -0.8121049069      0.0000000000      0.4497248038
3
# ORCA AIMD Position Step 535, t=267.50 fs, E_Pot=-13305.81922172 kJ mol^-1, Unit is Angstrom
 O     -0.0018237321      0.0000000000     -0.0611630639
 H      0.8374016941     -0.0000000000      0.4515848489
 H     -0.8084553749      0.0000000000      0.4345268425
3
# ORCA AIMD Position Step 536, t=268.00 fs, E_Pot=-13305.00902324 kJ mol^-1, Unit is Angstrom
 O     -0.0017112334      0.0000000000     -0.0594724138
 H      0.8320087958     -0.0000000000      0.4378396014
 H     -0.8048480588      0.0000000000      0.4214380522
3
# ORCA AIMD Position Step 537, t=268.50 fs, E_Pot=-13303.49726058 kJ mol^-1, Unit is Angstrom
 O     -0.0013844695      0.0000000000     -0.0579643286
 H      0.8242254892     -0.0000000000      0.4244930072
 H     -0.8022511571      0.0000000000      0.4108482822
3
# ORCA AIMD Position Step 538, t=269.00 fs, E_Pot=-13301.40939824 kJ mol^-1, Unit is Angstrom
 O     -0.0008544221      0.0000000000     -0.0567005461
 H      0.8150900264     -0.0000000000      0.4121143655
 H     -0.8015286188      0.0000000000      0.4031681376
3
# ORCA AIMD Position Step 539, t=269.50 fs, E_Pot=-13299.36647166 kJ mol^-1, Unit is Angstrom
 O     -0.0002136861      0.0000000000     -0.0558397280
 H      0.8066456341     -0.0000000000      0.4024075409
 H     -0.8032540037      0.0000000000      0.3992120378
3
# ORCA AIMD Position Step 540, t=270.00 fs, E_Pot=-13298.00728720 kJ mol^-1, Unit is Angstrom
 O      0.0004565445      0.0000000000     -0.0554147841
 H      0.8001829362     -0.0000000000      0.3960232469
 H     -0.8074292213      0.0000000000      0.3988516109
3
# ORCA AIMD Position Step 541, t=270.50 fs, E_Pot=-13297.76975912 kJ mol^-1, Unit is Angstrom
 O      0.0011014470      0.0000000000     -0.0554321222
 H      0.7964635439     -0.0000000000      0.3932754948
 H     -0.8139457367      0.0000000000      0.4018745541
3
# ORCA AIMD Position Step 542, t=271.00 fs, E_Pot=-13298.84413352 kJ mol^-1, Unit is Angstrom
 O      0.0015931312      0.0000000000     -0.0559038794
 H      0.7964331299     -0.0000000000      0.3948490044
 H     -0.8217193462      0.0000000000      0.4077887863
3
# ORCA AIMD Position Step 543, t=271.50 fs, E_Pot=-13300.74314636 kJ mol^-1, Unit is Angstrom
 O      0.0018169099      0.0000000000     -0.0567201709
 H      0.7998909652     -0.0000000000      0.4003954863
 H     -0.8287290024      0.0000000000      0.4151985020
3
# ORCA AIMD Position Step 544, t=272.00 fs, E_Pot=-13302.88113984 kJ mol^-1, Unit is Angstrom
 O      0.0017891506      0.0000000000     -0.0578600022
 H      0.8061386320     -0.0000000000      0.4096923003
 H     -0.8345360726      0.0000000000      0.4239931182
3
# ORCA AIMD Position Step 545, t=272.50 fs, E_Pot=-13304.48483888 kJ mol^-1, Unit is Angstrom
 O      0.0015468675      0.0000000000     -0.0591566979
 H      0.8134193093     -0.0000000000      0.4212492586
 H     -0.8379712269      0.0000000000      0.4330173438
3
# ORCA AIMD Position Step 546, t=273.00 fs, E_Pot=-13305.42187306 kJ mol^-1, Unit is Angstrom
 O      0.0011307984      0.0000000000     -0.0606092106
 H      0.8207937348     -0.0000000000      0.4348848918
 H     -0.8387417941      0.0000000000      0.4424360277
3
# ORCA AIMD Position Step 547, t=273.50 fs, E_Pot=-13305.76834760 kJ mol^-1, Unit is Angstrom
 O      0.0005947368      0.0000000000     -0.0621599400
 H      0.8270145451     -0.0000000000      0.4498920038
 H     -0.8364542224      0.0000000000      0.4520421302
3
# ORCA AIMD Position Step 548, t=274.00 fs, E_Pot=-13305.84782250 kJ mol^-1, Unit is Angstrom
 O      0.0000001974      0.0000000000     -0.0637386883
 H      0.8309044454     -0.0000000000      0.4654127919
 H     -0.8309075781     -0.0000000000      0.4615792713
3
# ORCA AIMD Position Step 549, t=274.50 fs, E_Pot=-13306.04130482 kJ mol^-1, Unit is Angstrom
 O     -0.0005987707      0.0000000000     -0.0652998171
 H      0.8315749043     -0.0000000000      0.4808085181
 H     -0.8220712021     -0.0000000000      0.4709618192
3
# ORCA AIMD Position Step 550, t=275.00 fs, E_Pot=-13306.60209049 kJ mol^-1, Unit is Angstrom
 O     -0.0011505592      0.0000000000     -0.0668064994
 H      0.8283823999     -0.0000000000      0.4955090823
 H     -0.8101206965     -0.0000000000      0.4801753522
3
# ORCA AIMD Position Step 551, t=275.50 fs, E_Pot=-13307.55759212 kJ mol^-1, Unit is Angstrom
 O     -0.0015943228      0.0000000000     -0.0681979451
 H      0.8210779063     -0.0000000000      0.5086957250
 H     -0.7957727762     -0.0000000000      0.4890737690
3
# ORCA AIMD Position Step 552, t=276.00 fs, E_Pot=-13308.71306295 kJ mol^-1, Unit is Angstrom
 O     -0.0018769892      0.0000000000     -0.0694212873
 H      0.8099728639     -0.0000000000      0.5196443847
 H     -0.7801812474     -0.0000000000      0.4975420260
3
# ORCA AIMD Position Step 553, t=276.50 fs, E_Pot=-13309.75860332 kJ mol^-1, Unit is Angstrom
 O     -0.0019683556      0.0000000000     -0.0704639893
 H      0.7957289437     -0.0000000000      0.5280635039
 H     -0.7644871573     -0.0000000000      0.5056726983
3
# ORCA AIMD Position Step 554, t=277.00 fs, E_Pot=-13310.36707591 kJ mol^-1, Unit is Angstrom
 O     -0.0018589473      0.0000000000     -0.0713982516
 H      0.7783312129     -0.0000000000      0.5344194236
 H     -0.7488259569     -0.0000000000      0.5141454106
3
# ORCA AIMD Position Step 555, t=277.50 fs, E_Pot=-13310.17953947 kJ mol^-1, Unit is Angstrom
 O     -0.0015580506      0.0000000000     -0.0722119174
 H      0.7595687724     -0.0000000000      0.5386556856
 H     -0.7348393562     -0.0000000000      0.5228236719
3
# ORCA AIMD Position Step 556, t=278.00 fs, E_Pot=-13309.06046962 kJ mol^-1, Unit is Angstrom
 O     -0.0010911608      0.0000000000     -0.0729575376
 H      0.7404006038      0.0000000000      0.5413086854
 H     -0.7230816731     -0.0000000000      0.5320051739
3
# ORCA AIMD Position Step 557, t=278.50 fs, E_Pot=-13307.04067831 kJ mol^-1, Unit is Angstrom
 O     -0.0005020035      0.0000000000     -0.0736889031
 H      0.7218999097      0.0000000000      0.5430521269
 H     -0.7139320980     -0.0000000000      0.5418699838
3
# ORCA AIMD Position Step 558, t=279.00 fs, E_Pot=-13304.47310571 kJ mol^-1, Unit is Angstrom
 O      0.0001315561      0.0000000000     -0.0744365471
 H      0.7057011486      0.0000000000      0.5446237283
 H     -0.7077892100     -0.0000000000      0.5521650046
3
# ORCA AIMD Position Step 559, t=279.50 fs, E_Pot=-13301.98011787 kJ mol^-1, Unit is Angstrom
 O      0.0007239663      0.0000000000     -0.0752235572
 H      0.6931882774      0.0000000000      0.5467781791
 H     -0.7046790873     -0.0000000000      0.5625019981
3
# ORCA AIMD Position Step 560, t=280.00 fs, E_Pot=-13300.24429818 kJ mol^-1, Unit is Angstrom
 O      0.0011909584      0.0000000000     -0.0760467648
 H      0.6854635198      0.0000000000      0.5500768628
 H     -0.7043664404     -0.0000000000      0.5722692838
3
# ORCA AIMD Position Step 561, t=280.50 fs, E_Pot=-13299.65611666 kJ mol^-1, Unit is Angstrom
 O      0.0014662750      0.0000000000     -0.0768635282
 H      0.6830924640      0.0000000000      0.5546572871
 H     -0.7063652157     -0.0000000000      0.5806525482
3
# ORCA AIMD Position Step 562, t=281.00 fs, E_Pot=-13300.02195933 kJ mol^-1, Unit is Angstrom
 O      0.0015433324      0.0000000000     -0.0776914146
 H      0.6858054961      0.0000000000      0.5607216392
 H     -0.7103013042     -0.0000000000      0.5877284291
3
# ORCA AIMD Position Step 563, t=281.50 fs, E_Pot=-13300.82109471 kJ mol^-1, Unit is Angstrom
 O      0.0014164900      0.0000000000     -0.0784249131
 H      0.6929761205      0.0000000000      0.5674784048
 H     -0.7154586840     -0.0000000000      0.5926137688
3
# ORCA AIMD Position Step 564, t=282.00 fs, E_Pot=-13301.54510506 kJ mol^-1, Unit is Angstrom
 O      0.0011068963      0.0000000000     -0.0789942400
 H      0.7038046869      0.0000000000      0.5742255843
 H     -0.7213733714     -0.0000000000      0.5949029588
3
# ORCA AIMD Position Step 565, t=282.50 fs, E_Pot=-13301.93217659 kJ mol^-1, Unit is Angstrom
 O      0.0006580851      0.0000000000     -0.0793059673
 H      0.7170032595      0.0000000000      0.5799105191
 H     -0.7274484025     -0.0000000000      0.5941657679
3
# ORCA AIMD Position Step 566, t=283.00 fs, E_Pot=-13302.10945174 kJ mol^-1, Unit is Angstrom
 O      0.0001386883      0.0000000000     -0.0792810317
 H      0.7308113573      0.0000000000      0.5834182647
 H     -0.7330126207     -0.0000000000      0.5902622443
3
# ORCA AIMD Position Step 567, t=283.50 fs, E_Pot=-13302.42642023 kJ mol^-1, Unit is Angstrom
 O     -0.0003994627      0.0000000000     -0.0788821070
 H      0.7441346716      0.0000000000      0.5840914023
 H     -0.7377943898     -0.0000000000      0.5832573631
3
# ORCA AIMD Position Step 568, t=284.00 fs, E_Pot=-13303.18018856 kJ mol^-1, Unit is Angstrom
 O     -0.0008864391      0.0000000000     -0.0781215301
 H      0.7555806813      0.0000000000      0.5815443130
 H     -0.7415110983     -0.0000000000      0.5737325580
3
# ORCA AIMD Position Step 569, t=284.50 fs, E_Pot=-13304.54345528 kJ mol^-1, Unit is Angstrom
 O     -0.0013185411      0.0000000000     -0.0769511634
 H      0.7654683308      0.0000000000      0.5753921656
 H     -0.7445404155     -0.0000000000      0.5613086183
3
# ORCA AIMD Position Step 570, t=285.00 fs, E_Pot=-13306.38296459 kJ mol^-1, Unit is Angstrom
 O     -0.0016495117      0.0000000000     -0.0754022240
 H      0.7732706131      0.0000000000      0.5655846025
 H     -0.7470895248     -0.0000000000      0.5465313775
3
# ORCA AIMD Position Step 571, t=285.50 fs, E_Pot=-13308.36717098 kJ mol^-1, Unit is Angstrom
 O     -0.0018345923      0.0000000000     -0.0735473673
 H      0.7786516215      0.0000000000      0.5524187674
 H     -0.7495329284     -0.0000000000      0.5302568827
3
# ORCA AIMD Position Step 572, t=286.00 fs, E_Pot=-13310.09902097 kJ mol^-1, Unit is Angstrom
 O     -0.0018402315      0.0000000000     -0.0714688791
 H      0.7816211547      0.0000000000      0.5363559724
 H     -0.7524129571     -0.0000000000      0.5133298636
3
# ORCA AIMD Position Step 573, t=286.50 fs, E_Pot=-13311.19748155 kJ mol^-1, Unit is Angstrom
 O     -0.0016502712      0.0000000000     -0.0693507011
 H      0.7823946701      0.0000000000      0.5187684908
 H     -0.7562015263     -0.0000000000      0.4972975741
3
# ORCA AIMD Position Step 574, t=287.00 fs, E_Pot=-13311.51156441 kJ mol^-1, Unit is Angstrom
 O     -0.0012585540      0.0000000000     -0.0671790588
 H      0.7816091251      0.0000000000      0.4995637301
 H     -0.7616333268     -0.0000000000      0.4820339770
3
# ORCA AIMD Position Step 575, t=287.50 fs, E_Pot=-13310.95018808 kJ mol^-1, Unit is Angstrom
 O     -0.0007108654      0.0000000000     -0.0651381394
 H      0.7801304168      0.0000000000      0.4804923983
 H     -0.7688475437      0.0000000000      0.4687117868
3
# ORCA AIMD Position Step 576, t=288.00 fs, E_Pot=-13309.62520464 kJ mol^-1, Unit is Angstrom
 O     -0.0000565389      0.0000000000     -0.0632688050
 H      0.7789481274      0.0000000000      0.4621905389
 H     -0.7780507414      0.0000000000      0.4573435258
3
# ORCA AIMD Position Step 577, t=288.50 fs, E_Pot=-13307.87344955 kJ mol^-1, Unit is Angstrom
 O      0.0006062676      0.0000000000     -0.0616755254
 H      0.7791518384      0.0000000000      0.4460373713
 H     -0.7887745324      0.0000000000      0.4482081216
3
# ORCA AIMD Position Step 578, t=289.00 fs, E_Pot=-13306.04404464 kJ mol^-1, Unit is Angstrom
 O      0.0012134791      0.0000000000     -0.0603296040
 H      0.7817001482      0.0000000000      0.4321445372
 H     -0.8009605170      0.0000000000      0.4407384590
3
# ORCA AIMD Position Step 579, t=289.50 fs, E_Pot=-13304.58079222 kJ mol^-1, Unit is Angstrom
 O      0.0016587091      0.0000000000     -0.0592924617
 H      0.7871606669      0.0000000000      0.4215339315
 H     -0.8134877379      0.0000000000      0.4348875183
3
# ORCA AIMD Position Step 580, t=290.00 fs, E_Pot=-13303.69262547 kJ mol^-1, Unit is Angstrom
 O      0.0018695943      0.0000000000     -0.0585870000
 H      0.7953978708      0.0000000000      0.4147295056
 H     -0.8250721155      0.0000000000      0.4304948390
3
# ORCA AIMD Position Step 581, t=290.50 fs, E_Pot=-13303.18905377 kJ mol^-1, Unit is Angstrom
 O      0.0018324356      0.0000000000     -0.0581681142
 H      0.8059909388      0.0000000000      0.4114115714
 H     -0.8350754001      0.0000000000      0.4271642072
3
# ORCA AIMD Position Step 582, t=291.00 fs, E_Pot=-13302.74695541 kJ mol^-1, Unit is Angstrom
 O      0.0015671034      0.0000000000     -0.0579938378
 H      0.8178453863      0.0000000000      0.4111325436
 H     -0.8427184885      0.0000000000      0.4246771164
3
# ORCA AIMD Position Step 583, t=291.50 fs, E_Pot=-13302.21333485 kJ mol^-1, Unit is Angstrom
 O      0.0011348845      0.0000000000     -0.0580161520
 H      0.8292720445      0.0000000000      0.4132133827
 H     -0.8472849588      0.0000000000      0.4229504483
3
# ORCA AIMD Position Step 584, t=292.00 fs, E_Pot=-13301.58947085 kJ mol^-1, Unit is Angstrom
 O      0.0005652685      0.0000000000     -0.0581899963
 H      0.8399075029     -0.0000000000      0.4171415093
 H     -0.8488794578      0.0000000000      0.4217815823
3
# ORCA AIMD Position Step 585, t=292.50 fs, E_Pot=-13301.12917476 kJ mol^-1, Unit is Angstrom
 O     -0.0000362539      0.0000000000     -0.0584660440
 H      0.8479415818     -0.0000000000      0.4220366420
 H     -0.8473661586      0.0000000000      0.4212678866
3
# ORCA AIMD Position Step 586, t=293.00 fs, E_Pot=-13300.97308231 kJ mol^-1, Unit is Angstrom
 O     -0.0007267525      0.0000000000     -0.0588800792
 H      0.8539680502     -0.0000000000      0.4284251194
 H     -0.8424330172      0.0000000000      0.4214509855
3
# ORCA AIMD Position Step 587, t=293.50 fs, E_Pot=-13301.30720164 kJ mol^-1, Unit is Angstrom
 O     -0.0013646828      0.0000000000     -0.0593810956
 H      0.8564046841     -0.0000000000      0.4352475737
 H     -0.8347444063      0.0000000000      0.4225806746
3
# ORCA AIMD Position Step 588, t=294.00 fs, E_Pot=-13302.22019328 kJ mol^-1, Unit is Angstrom
 O     -0.0018752203      0.0000000000     -0.0599605648
 H      0.8547027366     -0.0000000000      0.4420763959
 H     -0.8249391952      0.0000000000      0.4249492017
3
# ORCA AIMD Position Step 589, t=294.50 fs, E_Pot=-13303.65203175 kJ mol^-1, Unit is Angstrom
 O     -0.0021867153      0.0000000000     -0.0606070014
 H      0.8487845466     -0.0000000000      0.4484710096
 H     -0.8140769500      0.0000000000      0.4288148446
3
# ORCA AIMD Position Step 590, t=295.00 fs, E_Pot=-13305.42594632 kJ mol^-1, Unit is Angstrom
 O     -0.0022548940      0.0000000000     -0.0613092995
 H      0.8391827431     -0.0000000000      0.4541183141
 H     -0.8033930118      0.0000000000      0.4343144336
3
# ORCA AIMD Position Step 591, t=295.50 fs, E_Pot=-13307.35265804 kJ mol^-1, Unit is Angstrom
 O     -0.0020750091      0.0000000000     -0.0620854041
 H      0.8265296742     -0.0000000000      0.4591121650
 H     -0.7935950810      0.0000000000      0.4416389328
3
# ORCA AIMD Position Step 592, t=296.00 fs, E_Pot=-13309.19349446 kJ mol^-1, Unit is Angstrom
 O     -0.0016639000      0.0000000000     -0.0629684296
 H      0.8114394965     -0.0000000000      0.4637677926
 H     -0.7850300362      0.0000000000      0.4509987064
3
# ORCA AIMD Position Step 593, t=296.50 fs, E_Pot=-13310.65195353 kJ mol^-1, Unit is Angstrom
 O     -0.0010476873      0.0000000000     -0.0640153440
 H      0.7942890510     -0.0000000000      0.4686353042
 H     -0.7776601336      0.0000000000      0.4627478456
3
# ORCA AIMD Position Step 594, t=297.00 fs, E_Pot=-13311.35048962 kJ mol^-1, Unit is Angstrom
 O     -0.0003275377      0.0000000000     -0.0651935946
 H      0.7770765758     -0.0000000000      0.4739796628
 H     -0.7718778897      0.0000000000      0.4761047093
3
# ORCA AIMD Position Step 595, t=297.50 fs, E_Pot=-13311.27678373 kJ mol^-1, Unit is Angstrom
 O      0.0003876577      0.0000000000     -0.0664823300
 H      0.7614178656     -0.0000000000      0.4802228898
 H     -0.7675707782      0.0000000000      0.4903163203
3
# ORCA AIMD Position Step 596, t=298.00 fs, E_Pot=-13310.74815028 kJ mol^-1, Unit is Angstrom
 O      0.0009943256      0.0000000000     -0.0678510362
 H      0.7486156492     -0.0000000000      0.4877120991
 H     -0.7643976089      0.0000000000      0.5045512489
3
# ORCA AIMD Position Step 597, t=298.50 fs, E_Pot=-13310.10706382 kJ mol^-1, Unit is Angstrom
 O      0.0014536450      0.0000000000     -0.0693612006
 H      0.7386387903     -0.0000000000      0.4971904635
 H     -0.7617110786      0.0000000000      0.5190422496
3
# ORCA AIMD Position Step 598, t=299.00 fs, E_Pot=-13309.59048364 kJ mol^-1, Unit is Angstrom
 O      0.0017012166      0.0000000000     -0.0709297703
 H      0.7321435040     -0.0000000000      0.5084077240
 H     -0.7591452537      0.0000000000      0.5327213640
3
# ORCA AIMD Position Step 599, t=299.50 fs, E_Pot=-13309.16041270 kJ mol^-1, Unit is Angstrom
 O      0.0017242425      0.0000000000     -0.0725232477
 H      0.7289053581     -0.0000000000      0.5212162393
 H     -0.7562725762      0.0000000000      0.5452045605
3
# ORCA AIMD Position Step 600, t=300.00 fs, E_Pot=-13308.58009326 kJ mol^-1, Unit is Angstrom
 O      0.0015339498      0.0000000000     -0.0740983313
 H      0.7283961400     -0.0000000000      0.5352399274
 H     -0.7527430273      0.0000000000      0.5561806372
3
# ORCA AIMD Position Step 601, t=300.50 fs, E_Pot=-13307.62197721 kJ mol^-1, Unit is Angstrom
 O      0.0011618099      0.0000000000     -0.0755833569
 H      0.7299024217     -0.0000000000      0.5497354033
 H     -0.7483426966      0.0000000000      0.5652555222
3
# ORCA AIMD Position Step 602, t=301.00 fs, E_Pot=-13306.25845723 kJ mol^-1, Unit is Angstrom
 O      0.0006586769      0.0000000000     -0.0768871634
 H      0.7325831545     -0.0000000000      0.5636615103
 H     -0.7430376901     -0.0000000000      0.5720234637
3
# ORCA AIMD Position Step 603, t=301.50 fs, E_Pot=-13304.77368497 kJ mol^-1, Unit is Angstrom
 O      0.0001060938      0.0000000000     -0.0778830403
 H      0.7354918569     -0.0000000000      0.5754682355
 H     -0.7371757803     -0.0000000000      0.5760233204
3
# ORCA AIMD Position Step 604, t=302.00 fs, E_Pot=-13303.46949015 kJ mol^-1, Unit is Angstrom
 O     -0.0004469680      0.0000000000     -0.0785446255
 H      0.7380077532     -0.0000000000      0.5846221112
 H     -0.7309134665     -0.0000000000      0.5773701411
3
# ORCA AIMD Position Step 605, t=302.50 fs, E_Pot=-13302.59313955 kJ mol^-1, Unit is Angstrom
 O     -0.0009530568      0.0000000000     -0.0788553188
 H      0.7396841502     -0.0000000000      0.5906693829
 H     -0.7245572106     -0.0000000000      0.5762542000
3
# ORCA AIMD Position Step 606, t=303.00 fs, E_Pot=-13302.22268465 kJ mol^-1, Unit is Angstrom
 O     -0.0013982988      0.0000000000     -0.0788230385
 H      0.7403268385     -0.0000000000      0.5935842040
 H     -0.7181330061     -0.0000000000      0.5728270253
3
# ORCA AIMD Position Step 607, t=303.50 fs, E_Pot=-13302.35837114 kJ mol^-1, Unit is Angstrom
 O     -0.0017544115      0.0000000000     -0.0784315626
 H      0.7397617688     -0.0000000000      0.5930480048
 H     -0.7119157075     -0.0000000000      0.5671497104
3
# ORCA AIMD Position Step 608, t=304.00 fs, E_Pot=-13302.92593532 kJ mol^-1, Unit is Angstrom
 O     -0.0019170760      0.0000000000     -0.0777772714
 H      0.7381303380     -0.0000000000      0.5890866663
 H     -0.7077024627     -0.0000000000      0.5607261235
3
# ORCA AIMD Position Step 609, t=304.50 fs, E_Pot=-13303.89703349 kJ mol^-1, Unit is Angstrom
 O     -0.0018746241      0.0000000000     -0.0768800024
 H      0.7356136378     -0.0000000000      0.5817876484
 H     -0.7058595596     -0.0000000000      0.5537836658
3
# ORCA AIMD Position Step 610, t=305.00 fs, E_Pot=-13305.21854249 kJ mol^-1, Unit is Angstrom
 O     -0.0016078395      0.0000000000     -0.0757348649
 H      0.7324512003     -0.0000000000      0.5709968997
 H     -0.7069315331     -0.0000000000      0.5463987648
3
# ORCA AIMD Position Step 611, t=305.50 fs, E_Pot=-13306.61947056 kJ mol^-1, Unit is Angstrom
 O     -0.0011465965      0.0000000000     -0.0744911512
 H      0.7294882111      0.0000000000      0.5581088509
 H     -0.7112894041     -0.0000000000      0.5395465601
3
# ORCA AIMD Position Step 612, t=306.00 fs, E_Pot=-13307.90586696 kJ mol^-1, Unit is Angstrom
 O     -0.0005405696      0.0000000000     -0.0732241005
 H      0.7274926907      0.0000000000      0.5440713339
 H     -0.7189127572     -0.0000000000      0.5334734189
3
# ORCA AIMD Position Step 613, t=306.50 fs, E_Pot=-13308.92015696 kJ mol^-1, Unit is Angstrom
 O      0.0001436513      0.0000000000     -0.0719788585
 H      0.7272457119      0.0000000000      0.5296979835
 H     -0.7295257490     -0.0000000000      0.5280822577
3
# ORCA AIMD Position Step 614, t=307.00 fs, E_Pot=-13309.60277308 kJ mol^-1, Unit is Angstrom
 O      0.0008112543      0.0000000000     -0.0708090205
 H      0.7294894580      0.0000000000      0.5160355252
 H     -0.7423657054     -0.0000000000      0.5231770201
3
# ORCA AIMD Position Step 615, t=307.50 fs, E_Pot=-13310.04834812 kJ mol^-1, Unit is Angstrom
 O      0.0014029280      0.0000000000     -0.0696838372
 H      0.7349321200      0.0000000000      0.5032017893
 H     -0.7571994271     -0.0000000000      0.5181518189
3
# ORCA AIMD Position Step 616, t=308.00 fs, E_Pot=-13310.33111457 kJ mol^-1, Unit is Angstrom
 O      0.0018355320      0.0000000000     -0.0686111462
 H      0.7439409194      0.0000000000      0.4917505710
 H     -0.7730745263     -0.0000000000      0.5125772612
3
# ORCA AIMD Position Step 617, t=308.50 fs, E_Pot=-13310.45456133 kJ mol^-1, Unit is Angstrom
 O      0.0020370163      0.0000000000     -0.0676175704
 H      0.7560889321      0.0000000000      0.4823030971
 H     -0.7884205036     -0.0000000000      0.5062546758
3
# ORCA AIMD Position Step 618, t=309.00 fs, E_Pot=-13310.33005652 kJ mol^-1, Unit is Angstrom
 O      0.0019853420      0.0000000000     -0.0667016632
 H      0.7704294925      0.0000000000      0.4749455176
 H     -0.8019408885     -0.0000000000      0.4990749538
3
# ORCA AIMD Position Step 619, t=309.50 fs, E_Pot=-13309.81478505 kJ mol^-1, Unit is Angstrom
 O      0.0016948016      0.0000000000     -0.0658068971
 H      0.7863621523      0.0000000000      0.4690992601
 H     -0.8132620843     -0.0000000000      0.4907194638
3
# ORCA AIMD Position Step 620, t=310.00 fs, E_Pot=-13308.91541508 kJ mol^-1, Unit is Angstrom
 O      0.0012219277      0.0000000000     -0.0649445943
 H      0.8019751888      0.0000000000      0.4645266554
 H     -0.8213696544     -0.0000000000      0.4816055777
3
# ORCA AIMD Position Step 621, t=310.50 fs, E_Pot=-13307.70416971 kJ mol^-1, Unit is Angstrom
 O      0.0005967524      0.0000000000     -0.0640426274
 H      0.8170150938      0.0000000000      0.4604549268
 H     -0.8264867615     -0.0000000000      0.4713612664
3
# ORCA AIMD Position Step 622, t=311.00 fs, E_Pot=-13306.42810431 kJ mol^-1, Unit is Angstrom
 O     -0.0000903903      0.0000000000     -0.0631278949
 H      0.8298187410      0.0000000000      0.4566164660
 H     -0.8283840644     -0.0000000000      0.4606810711
3
# ORCA AIMD Position Step 623, t=311.50 fs, E_Pot=-13305.22468088 kJ mol^-1, Unit is Angstrom
 O     -0.0008007782      0.0000000000     -0.0621649131
 H      0.8400842209      0.0000000000      0.4525182229
 H     -0.8273742507     -0.0000000000      0.4494948440
3
# ORCA AIMD Position Step 624, t=312.00 fs, E_Pot=-13304.22181133 kJ mol^-1, Unit is Angstrom
 O     -0.0014478208      0.0000000000     -0.0611946874
 H      0.8469177431      0.0000000000      0.4480482308
 H     -0.8239378976     -0.0000000000      0.4385653900
3
# ORCA AIMD Position Step 625, t=312.50 fs, E_Pot=-13303.44809855 kJ mol^-1, Unit is Angstrom
 O     -0.0019619765      0.0000000000     -0.0602515091
 H      0.8499418155      0.0000000000      0.4431370568
 H     -0.8188012779     -0.0000000000      0.4285064160
3
# ORCA AIMD Position Step 626, t=313.00 fs, E_Pot=-13302.95446384 kJ mol^-1, Unit is Angstrom
 O     -0.0022603966      0.0000000000     -0.0594229032
 H      0.8490048541      0.0000000000      0.4380783791
 H     -0.8131277852     -0.0000000000      0.4204134415
3
# ORCA AIMD Position Step 627, t=313.50 fs, E_Pot=-13302.67791129 kJ mol^-1, Unit is Angstrom
 O     -0.0023274190      0.0000000000     -0.0586580361
 H      0.8441062327      0.0000000000      0.4324108374
 H     -0.8071653827     -0.0000000000      0.4139409930
3
# ORCA AIMD Position Step 628, t=314.00 fs, E_Pot=-13302.70612792 kJ mol^-1, Unit is Angstrom
 O     -0.0021255156      0.0000000000     -0.0581373388
 H      0.8365442312      0.0000000000      0.4273808071
 H     -0.8028079963     -0.0000000000      0.4107065038
3
# ORCA AIMD Position Step 629, t=314.50 fs, E_Pot=-13303.06480516 kJ mol^-1, Unit is Angstrom
 O     -0.0016482125      0.0000000000     -0.0578521341
 H      0.8263878473      0.0000000000      0.4228998403
 H     -0.8002273788     -0.0000000000      0.4106606945
3
# ORCA AIMD Position Step 630, t=315.00 fs, E_Pot=-13303.61445403 kJ mol^-1, Unit is Angstrom
 O     -0.0009726723      0.0000000000     -0.0578622947
 H      0.8152912105      0.0000000000      0.4198071272
 H     -0.7998529333      0.0000000000      0.4139146768
3
# ORCA AIMD Position Step 631, t=315.50 fs, E_Pot=-13304.20648272 kJ mol^-1, Unit is Angstrom
 O     -0.0001551777      0.0000000000     -0.0581965300
 H      0.8039477032      0.0000000000      0.4185995845
 H     -0.8014847195      0.0000000000      0.4204272116
3
# ORCA AIMD Position Step 632, t=316.00 fs, E_Pot=-13304.76478471 kJ mol^-1, Unit is Angstrom
 O      0.0006374710      0.0000000000     -0.0588421581
 H      0.7943103012      0.0000000000      0.4199746315
 H     -0.8044282564      0.0000000000      0.4292995891
3
# ORCA AIMD Position Step 633, t=316.50 fs, E_Pot=-13305.48577152 kJ mol^-1, Unit is Angstrom
 O      0.0013232319      0.0000000000     -0.0598099206
 H      0.7869550403      0.0000000000      0.4244290635
 H     -0.8079574082      0.0000000000      0.4402055052
3
# ORCA AIMD Position Step 634, t=317.00 fs, E_Pot=-13306.53614700 kJ mol^-1, Unit is Angstrom
 O      0.0018034108      0.0000000000     -0.0610579479
 H      0.7825046027      0.0000000000      0.4321349191
 H     -0.8111283823      0.0000000000      0.4523083689
3
# ORCA AIMD Position Step 635, t=317.50 fs, E_Pot=-13307.90036121 kJ mol^-1, Unit is Angstrom
 O      0.0020370040      0.0000000000     -0.0625715333
 H      0.7808453434      0.0000000000      0.4432163337
 H     -0.8131767197      0.0000000000      0.4652506178
3
# ORCA AIMD Position Step 636, t=318.00 fs, E_Pot=-13309.28685061 kJ mol^-1, Unit is Angstrom
 O      0.0020141256      0.0000000000     -0.0643790207
 H      0.7814618531      0.0000000000      0.4579999035
 H     -0.8134301027      0.0000000000      0.4791555321
3
# ORCA AIMD Position Step 637, t=318.50 fs, E_Pot=-13310.15373255 kJ mol^-1, Unit is Angstrom
 O      0.0017538432      0.0000000000     -0.0662527190
 H      0.7834232192     -0.0000000000      0.4745870946
 H     -0.8112602607      0.0000000000      0.4923077245
3
# ORCA AIMD Position Step 638, t=319.00 fs, E_Pot=-13310.33634536 kJ mol^-1, Unit is Angstrom
 O      0.0012962482      0.0000000000     -0.0681604372
 H      0.7856934578     -0.0000000000      0.4925430742
 H     -0.8062675397      0.0000000000      0.5046310934
3
# ORCA AIMD Position Step 639, t=319.50 fs, E_Pot=-13309.89971418 kJ mol^-1, Unit is Angstrom
 O      0.0007111602      0.0000000000     -0.0699753421
 H      0.7871644860     -0.0000000000      0.5104859056
 H     -0.7984520378      0.0000000000      0.5154944762
3
# ORCA AIMD Position Step 640, t=320.00 fs, E_Pot=-13309.14902709 kJ mol^-1, Unit is Angstrom
 O      0.0000771077      0.0000000000     -0.0715860561
 H      0.7869527385     -0.0000000000      0.5270875404
 H     -0.7881765942      0.0000000000      0.5244581326
3
# ORCA AIMD Position Step 641, t=320.50 fs, E_Pot=-13308.40581006 kJ mol^-1, Unit is Angstrom
 O     -0.0005358870      0.0000000000     -0.0729249122
 H      0.7845238884     -0.0000000000      0.5413996233
 H     -0.7760182773      0.0000000000      0.5313964050
3
# ORCA AIMD Position Step 642, t=321.00 fs, E_Pot=-13307.72786492 kJ mol^-1, Unit is Angstrom
 O     -0.0011252068      0.0000000000     -0.0740766855
 H      0.7793262547     -0.0000000000      0.5540728401
 H     -0.7614669455      0.0000000000      0.5370041609
3
# ORCA AIMD Position Step 643, t=321.50 fs, E_Pot=-13307.08696844 kJ mol^-1, Unit is Angstrom
 O     -0.0016095014      0.0000000000     -0.0749724959
 H      0.7714613733     -0.0000000000      0.5640505599
 H     -0.7459153283      0.0000000000      0.5412447649
3
# ORCA AIMD Position Step 644, t=322.00 fs, E_Pot=-13306.41181657 kJ mol^-1, Unit is Angstrom
 O     -0.0019243433      0.0000000000     -0.0755907711
 H      0.7614555646     -0.0000000000      0.5707430707
 H     -0.7309123425      0.0000000000      0.5443655341
3
# ORCA AIMD Position Step 645, t=322.50 fs, E_Pot=-13305.54132993 kJ mol^-1, Unit is Angstrom
 O     -0.0020511420      0.0000000000     -0.0759978369
 H      0.7491144783     -0.0000000000      0.5745168829
 H     -0.7165587035      0.0000000000      0.5470526801
3
# ORCA AIMD Position Step 646, t=323.00 fs, E_Pot=-13304.59574310 kJ mol^-1, Unit is Angstrom
 O     -0.0019569209      0.0000000000     -0.0761931290
 H      0.7365972686     -0.0000000000      0.5751575483
 H     -0.7055369741      0.0000000000      0.5495116944
3
# ORCA AIMD Position Step 647, t=323.50 fs, E_Pot=-13303.59535964 kJ mol^-1, Unit is Angstrom
 O     -0.0016380041      0.0000000000     -0.0762523280
 H      0.7234676466     -0.0000000000      0.5731861267
 H     -0.6974692061      0.0000000000      0.5524227243
3
# ORCA AIMD Position Step 648, t=324.00 fs, E_Pot=-13302.57571834 kJ mol^-1, Unit is Angstrom
 O     -0.0011105850      0.0000000000     -0.0762241573
 H      0.7105730289     -0.0000000000      0.5690748845
 H     -0.6929457971      0.0000000000      0.5560868412
3
# ORCA AIMD Position Step 649, t=324.50 fs, E_Pot=-13301.71009549 kJ mol^-1, Unit is Angstrom
 O     -0.0004671872      0.0000000000     -0.0761572127
 H      0.6999596179     -0.0000000000      0.5638520922
 H     -0.6925444116      0.0000000000      0.5602470860
3
# ORCA AIMD Position Step 650, t=325.00 fs, E_Pot=-13301.23409353 kJ mol^-1, Unit is Angstrom
 O      0.0001863095      0.0000000000     -0.0760894330
 H      0.6929973226     -0.0000000000      0.5585589316
 H     -0.6959544318      0.0000000000      0.5644644464
3
# ORCA AIMD Position Step 651, t=325.50 fs, E_Pot=-13301.30254713 kJ mol^-1, Unit is Angstrom
 O      0.0008191860      0.0000000000     -0.0760310519
 H      0.6899040456     -0.0000000000      0.5534750300
 H     -0.7029061846      0.0000000000      0.5686217223
3
# ORCA AIMD Position Step 652, t=326.00 fs, E_Pot=-13302.03086339 kJ mol^-1, Unit is Angstrom
 O      0.0013243940      0.0000000000     -0.0759795275
 H      0.6913755412     -0.0000000000      0.5493344141
 H     -0.7123963540      0.0000000000      0.5719445413
3
# ORCA AIMD Position Step 653, t=326.50 fs, E_Pot=-13303.38984851 kJ mol^-1, Unit is Angstrom
 O      0.0016612343      0.0000000000     -0.0759057868
 H      0.6976392442     -0.0000000000      0.5461707820
 H     -0.7240063940      0.0000000000      0.5739377590
3
# ORCA AIMD Position Step 654, t=327.00 fs, E_Pot=-13305.02099988 kJ mol^-1, Unit is Angstrom
 O      0.0017769215      0.0000000000     -0.0757671456
 H      0.7080879262     -0.0000000000      0.5440041280
 H     -0.7362912671      0.0000000000      0.5739038973
3
# ORCA AIMD Position Step 655, t=327.50 fs, E_Pot=-13306.55047411 kJ mol^-1, Unit is Angstrom
 O      0.0016683024      0.0000000000     -0.0755040673
 H      0.7221044599     -0.0000000000      0.5423557276
 H     -0.7485837949      0.0000000000      0.5713767117
3
# ORCA AIMD Position Step 656, t=328.00 fs, E_Pot=-13307.65170110 kJ mol^-1, Unit is Angstrom
 O      0.0013524473      0.0000000000     -0.0750539865
 H      0.7387049690     -0.0000000000      0.5405889695
 H     -0.7601710448      0.0000000000      0.5659997773
3
# ORCA AIMD Position Step 657, t=328.50 fs, E_Pot=-13308.21413106 kJ mol^-1, Unit is Angstrom
 O      0.0008709396      0.0000000000     -0.0743697936
 H      0.7564273693     -0.0000000000      0.5380397974
 H     -0.7702509435      0.0000000000      0.5576894232
3
# ORCA AIMD Position Step 658, t=329.00 fs, E_Pot=-13308.39998917 kJ mol^-1, Unit is Angstrom
 O      0.0002915883      0.0000000000     -0.0734425424
 H      0.7734401040     -0.0000000000      0.5341941057
 H     -0.7780682000      0.0000000000      0.5468177613
3
# ORCA AIMD Position Step 659, t=329.50 fs, E_Pot=-13308.47558413 kJ mol^-1, Unit is Angstrom
 O     -0.0003420162      0.0000000000     -0.0722423672
 H      0.7890459918     -0.0000000000      0.5285308902
 H     -0.7836175030     -0.0000000000      0.5334317675
3
# ORCA AIMD Position Step 660, t=330.00 fs, E_Pot=-13308.61768117 kJ mol^-1, Unit is Angstrom
 O     -0.0009528411      0.0000000000     -0.0708198796
 H      0.8019253668     -0.0000000000      0.5209794921
 H     -0.7868018500     -0.0000000000      0.5184054082
3
# ORCA AIMD Position Step 661, t=330.50 fs, E_Pot=-13308.86802940 kJ mol^-1, Unit is Angstrom
 O     -0.0014768461      0.0000000000     -0.0692343973
 H      0.8113824070     -0.0000000000      0.5116317952
 H     -0.7879418707     -0.0000000000      0.5025882922
3
# ORCA AIMD Position Step 662, t=331.00 fs, E_Pot=-13309.10678432 kJ mol^-1, Unit is Angstrom
 O     -0.0018825373      0.0000000000     -0.0674754289
 H      0.8175280862     -0.0000000000      0.5002398714
 H     -0.7876484100     -0.0000000000      0.4860618288
3
# ORCA AIMD Position Step 663, t=331.50 fs, E_Pot=-13309.10489790 kJ mol^-1, Unit is Angstrom
 O     -0.0021165679      0.0000000000     -0.0656208338
 H      0.8202598629     -0.0000000000      0.4871352250
 H     -0.7866656465     -0.0000000000      0.4697302978
3
# ORCA AIMD Position Step 664, t=332.00 fs, E_Pot=-13308.70417923 kJ mol^-1, Unit is Angstrom
 O     -0.0021343273      0.0000000000     -0.0637873569
 H      0.8197746677     -0.0000000000      0.4730157776
 H     -0.7858985743     -0.0000000000      0.4547487555
3
# ORCA AIMD Position Step 665, t=332.50 fs, E_Pot=-13307.90303990 kJ mol^-1, Unit is Angstrom
 O     -0.0019164996      0.0000000000     -0.0620749051
 H      0.8166455504      0.0000000000      0.4585963428
 H     -0.7862268236     -0.0000000000      0.4419881138
3
# ORCA AIMD Position Step 666, t=333.00 fs, E_Pot=-13306.78202875 kJ mol^-1, Unit is Angstrom
 O     -0.0014685472      0.0000000000     -0.0605430181
 H      0.8116581122      0.0000000000      0.4444113756
 H     -0.7883492968     -0.0000000000      0.4318589343
3
# ORCA AIMD Position Step 667, t=333.50 fs, E_Pot=-13305.50856154 kJ mol^-1, Unit is Angstrom
 O     -0.0008471906      0.0000000000     -0.0593022994
 H      0.8060022374      0.0000000000      0.4316469845
 H     -0.7925556082     -0.0000000000      0.4249306083
3
# ORCA AIMD Position Step 668, t=334.00 fs, E_Pot=-13304.16673864 kJ mol^-1, Unit is Angstrom
 O     -0.0001038955      0.0000000000     -0.0583540554
 H      0.8006086182      0.0000000000      0.4205965434
 H     -0.7989595867     -0.0000000000      0.4209304995
3
# ORCA AIMD Position Step 669, t=334.50 fs, E_Pot=-13302.96534575 kJ mol^-1, Unit is Angstrom
 O      0.0006485113      0.0000000000     -0.0577507660
 H      0.7967205840      0.0000000000      0.4122368625
 H     -0.8070137701     -0.0000000000      0.4197147553
3
# ORCA AIMD Position Step 670, t=335.00 fs, E_Pot=-13302.18201416 kJ mol^-1, Unit is Angstrom
 O      0.0013088828      0.0000000000     -0.0575025235
 H      0.7952522922      0.0000000000      0.4071388425
 H     -0.8160269110     -0.0000000000      0.4208726660
3
# ORCA AIMD Position Step 671, t=335.50 fs, E_Pot=-13302.12461271 kJ mol^-1, Unit is Angstrom
 O      0.0017374987      0.0000000000     -0.0576111626
 H      0.7967526710      0.0000000000      0.4059809574
 H     -0.8243302915     -0.0000000000      0.4237548726
3
# ORCA AIMD Position Step 672, t=336.00 fs, E_Pot=-13302.74258971 kJ mol^-1, Unit is Angstrom
 O      0.0019294788      0.0000000000     -0.0580524905
 H      0.8012576719      0.0000000000      0.4085962134
 H     -0.8318824047     -0.0000000000      0.4281443835
3
# ORCA AIMD Position Step 673, t=336.50 fs, E_Pot=-13303.66957768 kJ mol^-1, Unit is Angstrom
 O      0.0018626038      0.0000000000     -0.0587852084
 H      0.8081824830      0.0000000000      0.4147669603
 H     -0.8377457754     -0.0000000000      0.4336033532
3
# ORCA AIMD Position Step 674, t=337.00 fs, E_Pot=-13304.45895062 kJ mol^-1, Unit is Angstrom
 O      0.0015673130      0.0000000000     -0.0596897685
 H      0.8159131252      0.0000000000      0.4234043713
 H     -0.8407895541     -0.0000000000      0.4393231414
3
# ORCA AIMD Position Step 675, t=337.50 fs, E_Pot=-13304.98102085 kJ mol^-1, Unit is Angstrom
 O      0.0010552988      0.0000000000     -0.0608087066
 H      0.8240952075      0.0000000000      0.4348036125
 H     -0.8408449350     -0.0000000000      0.4456837129
3
# ORCA AIMD Position Step 676, t=338.00 fs, E_Pot=-13305.21803275 kJ mol^-1, Unit is Angstrom
 O      0.0004258475      0.0000000000     -0.0619944770
 H      0.8307992043      0.0000000000      0.4473159194
 H     -0.8375582663     -0.0000000000      0.4519919809
3
# ORCA AIMD Position Step 677, t=338.50 fs, E_Pot=-13305.42432339 kJ mol^-1, Unit is Angstrom
 O     -0.0002922261      0.0000000000     -0.0632648545
 H      0.8352767711      0.0000000000      0.4609422958
 H     -0.8306385519     -0.0000000000      0.4585290669
3
# ORCA AIMD Position Step 678, t=339.00 fs, E_Pot=-13305.82745088 kJ mol^-1, Unit is Angstrom
 O     -0.0010115075      0.0000000000     -0.0645425547
 H      0.8364337768      0.0000000000      0.4746277690
 H     -0.8203791063     -0.0000000000      0.4651232808
3
# ORCA AIMD Position Step 679, t=339.50 fs, E_Pot=-13306.56388579 kJ mol^-1, Unit is Angstrom
 O     -0.0016351320      0.0000000000     -0.0657429285
 H      0.8336382115      0.0000000000      0.4871982046
 H     -0.8076853578     -0.0000000000      0.4716052075
3
# ORCA AIMD Position Step 680, t=340.00 fs, E_Pot=-13307.62192318 kJ mol^-1, Unit is Angstrom
 O     -0.0021094015      0.0000000000     -0.0668604264
 H      0.8266737082      0.0000000000      0.4983069291
 H     -0.7931932371     -0.0000000000      0.4782334364
3
# ORCA AIMD Position Step 681, t=340.50 fs, E_Pot=-13308.80192631 kJ mol^-1, Unit is Angstrom
 O     -0.0023688604      0.0000000000     -0.0678482771
 H      0.8160434759      0.0000000000      0.5072179735
 H     -0.7784448668     -0.0000000000      0.4850015818
3
# ORCA AIMD Position Step 682, t=341.00 fs, E_Pot=-13309.91184530 kJ mol^-1, Unit is Angstrom
 O     -0.0023944148      0.0000000000     -0.0687527899
 H      0.8019506667      0.0000000000      0.5141497117
 H     -0.7639464576     -0.0000000000      0.4924262925
3
# ORCA AIMD Position Step 683, t=341.50 fs, E_Pot=-13310.67536203 kJ mol^-1, Unit is Angstrom
 O     -0.0021782045      0.0000000000     -0.0695845847
 H      0.7854094022      0.0000000000      0.5191109746
 H     -0.7508368889     -0.0000000000      0.5006672965
3
# ORCA AIMD Position Step 684, t=342.00 fs, E_Pot=-13310.83505941 kJ mol^-1, Unit is Angstrom
 O     -0.0017219091      0.0000000000     -0.0704224857
 H      0.7664686996      0.0000000000      0.5226761811
 H     -0.7391385173     -0.0000000000      0.5104012735
3
# ORCA AIMD Position Step 685, t=342.50 fs, E_Pot=-13310.16940504 kJ mol^-1, Unit is Angstrom
 O     -0.0011045485      0.0000000000     -0.0712395756
 H      0.7477605961      0.0000000000      0.5250953639
 H     -0.7302291762     -0.0000000000      0.5209509615
3
# ORCA AIMD Position Step 686, t=343.00 fs, E_Pot=-13308.77936957 kJ mol^-1, Unit is Angstrom
 O     -0.0004109326      0.0000000000     -0.0720573863
 H      0.7308461765      0.0000000000      0.5270403470
 H     -0.7243238438     -0.0000000000      0.5319862899
3
# ORCA AIMD Position Step 687, t=343.50 fs, E_Pot=-13307.05604786 kJ mol^-1, Unit is Angstrom
 O      0.0002569260      0.0000000000     -0.0728823147
 H      0.7172249884      0.0000000000      0.5292000579
 H     -0.7213029241      0.0000000000      0.5429198626
3
# ORCA AIMD Position Step 688, t=344.00 fs, E_Pot=-13305.36916427 kJ mol^-1, Unit is Angstrom
 O      0.0008562795      0.0000000000     -0.0737755267
 H      0.7069921490      0.0000000000      0.5323365542
 H     -0.7205830370      0.0000000000      0.5539604476
3
# ORCA AIMD Position Step 689, t=344.50 fs, E_Pot=-13304.15779944 kJ mol^-1, Unit is Angstrom
 O      0.0013058881      0.0000000000     -0.0747178794
 H      0.7009787899      0.0000000000      0.5368484232
 H     -0.7217058764      0.0000000000      0.5644056236
3
# ORCA AIMD Position Step 690, t=345.00 fs, E_Pot=-13303.69987140 kJ mol^-1, Unit is Angstrom
 O      0.0015293914      0.0000000000     -0.0756082327
 H      0.6997214732      0.0000000000      0.5424609400
 H     -0.7239960100      0.0000000000      0.5729248156
3
# ORCA AIMD Position Step 691, t=345.50 fs, E_Pot=-13303.84211122 kJ mol^-1, Unit is Angstrom
 O      0.0015241075      0.0000000000     -0.0764006486
 H      0.7026803473      0.0000000000      0.5488452310
 H     -0.7268710182      0.0000000000      0.5791177680
3
# ORCA AIMD Position Step 692, t=346.00 fs, E_Pot=-13304.24825552 kJ mol^-1, Unit is Angstrom
 O      0.0013098774      0.0000000000     -0.0770700331
 H      0.7091861039      0.0000000000      0.5556801611
 H     -0.7299765092      0.0000000000      0.5829073241
3
# ORCA AIMD Position Step 693, t=346.50 fs, E_Pot=-13304.60108476 kJ mol^-1, Unit is Angstrom
 O      0.0009077798      0.0000000000     -0.0775787471
 H      0.7186730714      0.0000000000      0.5625302889
 H     -0.7330813740      0.0000000000      0.5841315185
3
# ORCA AIMD Position Step 694, t=347.00 fs, E_Pot=-13304.72199797 kJ mol^-1, Unit is Angstrom
 O      0.0003534118      0.0000000000     -0.0778591227
 H      0.7303215894     -0.0000000000      0.5686174935
 H     -0.7359309502      0.0000000000      0.5824944420
3
# ORCA AIMD Position Step 695, t=347.50 fs, E_Pot=-13304.72603467 kJ mol^-1, Unit is Angstrom
 O     -0.0002351506      0.0000000000     -0.0778270478
 H      0.7417664383     -0.0000000000      0.5724607446
 H     -0.7380341227      0.0000000000      0.5781420960
3
# ORCA AIMD Position Step 696, t=348.00 fs, E_Pot=-13304.86177756 kJ mol^-1, Unit is Angstrom
 O     -0.0008644922      0.0000000000     -0.0774459263
 H      0.7533088308     -0.0000000000      0.5738283525
 H     -0.7395875904      0.0000000000      0.5707253201
3
# ORCA AIMD Position Step 697, t=348.50 fs, E_Pot=-13305.30328167 kJ mol^-1, Unit is Angstrom
 O     -0.0014353753      0.0000000000     -0.0767237679
 H      0.7633823713     -0.0000000000      0.5721115386
 H     -0.7406000601      0.0000000000      0.5609800186
3
# ORCA AIMD Position Step 698, t=349.00 fs, E_Pot=-13306.14515932 kJ mol^-1, Unit is Angstrom
 O     -0.0019106765      0.0000000000     -0.0756487512
 H      0.7717119287     -0.0000000000      0.5669860264
 H     -0.7413856265      0.0000000000      0.5490428402
3
# ORCA AIMD Position Step 699, t=349.50 fs, E_Pot=-13307.30517846 kJ mol^-1, Unit is Angstrom
 O     -0.0022253917      0.0000000000     -0.0742834256
 H      0.7776760949     -0.0000000000      0.5585282544
 H     -0.7423546246      0.0000000000      0.5358301313
3
# ORCA AIMD Position Step 700, t=350.00 fs, E_Pot=-13308.61476046 kJ mol^-1, Unit is Angstrom
 O     -0.0023311485      0.0000000000     -0.0727252709
 H      0.7810090620     -0.0000000000      0.5472097091
 H     -0.7440090172      0.0000000000      0.5224176079
3
# ORCA AIMD Position Step 701, t=350.50 fs, E_Pot=-13309.93327571 kJ mol^-1, Unit is Angstrom
 O     -0.0022057254      0.0000000000     -0.0709794597
 H      0.7819821327     -0.0000000000      0.5329722843
 H     -0.7469728063      0.0000000000      0.5089454756
3
# ORCA AIMD Position Step 702, t=351.00 fs, E_Pot=-13310.98743515 kJ mol^-1, Unit is Angstrom
 O     -0.0018449966      0.0000000000     -0.0691703334
 H      0.7809449303     -0.0000000000      0.5167971800
 H     -0.7516610997      0.0000000000      0.4964060841
3
# ORCA AIMD Position Step 703, t=351.50 fs, E_Pot=-13311.53044012 kJ mol^-1, Unit is Angstrom
 O     -0.0012646329      0.0000000000     -0.0673473070
 H      0.7785346719     -0.0000000000      0.4992094277
 H     -0.7584623893      0.0000000000      0.4850587186
3
# ORCA AIMD Position Step 704, t=352.00 fs, E_Pot=-13311.28643777 kJ mol^-1, Unit is Angstrom
 O     -0.0005149860      0.0000000000     -0.0655794557
 H      0.7756426775     -0.0000000000      0.4810830153
 H     -0.7674688070      0.0000000000      0.4751257521
3
# ORCA AIMD Position Step 705, t=352.50 fs, E_Pot=-13310.16610101 kJ mol^-1, Unit is Angstrom
 O      0.0003008324      0.0000000000     -0.0639743879
 H      0.7734422205     -0.0000000000      0.4638754308
 H     -0.7782170393      0.0000000000      0.4668576629
3
# ORCA AIMD Position Step 706, t=353.00 fs, E_Pot=-13308.34671957 kJ mol^-1, Unit is Angstrom
 O      0.0011017551      0.0000000000     -0.0625351821
 H      0.7730416433     -0.0000000000      0.4480661420
 H     -0.7905287271      0.0000000000      0.4598238421
3
# ORCA AIMD Position Step 707, t=353.50 fs, E_Pot=-13306.43901908 kJ mol^-1, Unit is Angstrom
 O      0.0017448433      0.0000000000     -0.0613551213
 H      0.7755003929     -0.0000000000      0.4351547824
 H     -0.8031945873      0.0000000000      0.4540052491
3
# ORCA AIMD Position Step 708, t=354.00 fs, E_Pot=-13305.04278515 kJ mol^-1, Unit is Angstrom
 O      0.0021396534      0.0000000000     -0.0604470616
 H      0.7814180827     -0.0000000000      0.4256898080
 H     -0.8153787118      0.0000000000      0.4490574787
3
# ORCA AIMD Position Step 709, t=354.50 fs, E_Pot=-13304.38276902 kJ mol^-1, Unit is Angstrom
 O      0.0022318237      0.0000000000     -0.0598094170
 H      0.7907213693     -0.0000000000      0.4199054098
 H     -0.8261449283      0.0000000000      0.4447211669
3
# ORCA AIMD Position Step 710, t=355.00 fs, E_Pot=-13304.12993310 kJ mol^-1, Unit is Angstrom
 O      0.0020157803      0.0000000000     -0.0593843508
 H      0.8032919482     -0.0000000000      0.4173260281
 H     -0.8352864610      0.0000000000      0.4405538868
3
# ORCA AIMD Position Step 711, t=355.50 fs, E_Pot=-13303.80226669 kJ mol^-1, Unit is Angstrom
 O      0.0015375279      0.0000000000     -0.0591562082
 H      0.8172635385     -0.0000000000      0.4175937027
 H     -0.8416672174      0.0000000000      0.4366651278
3
# ORCA AIMD Position Step 712, t=356.00 fs, E_Pot=-13303.09999399 kJ mol^-1, Unit is Angstrom
 O      0.0008521742      0.0000000000     -0.0590729576
 H      0.8315415980     -0.0000000000      0.4200091967
 H     -0.8450673267     -0.0000000000      0.4329282780
3
# ORCA AIMD Position Step 713, t=356.50 fs, E_Pot=-13302.05556693 kJ mol^-1, Unit is Angstrom
 O      0.0000411362      0.0000000000     -0.0590952414
 H      0.8446358421     -0.0000000000      0.4238643190
 H     -0.8452887569     -0.0000000000      0.4294268449
3
# ORCA AIMD Position Step 714, t=357.00 fs, E_Pot=-13300.99380375 kJ mol^-1, Unit is Angstrom
 O     -0.0007957287      0.0000000000     -0.0591927725
 H      0.8550278857     -0.0000000000      0.4284442427
 H     -0.8423980601     -0.0000000000      0.4263949371
3
# ORCA AIMD Position Step 715, t=357.50 fs, E_Pot=-13300.32726165 kJ mol^-1, Unit is Angstrom
 O     -0.0015541552      0.0000000000     -0.0593454444
 H      0.8614985733     -0.0000000000      0.4330971967
 H     -0.8368309852     -0.0000000000      0.4241651958
3
# ORCA AIMD Position Step 716, t=358.00 fs, E_Pot=-13300.42083073 kJ mol^-1, Unit is Angstrom
 O     -0.0020705887      0.0000000000     -0.0595254665
 H      0.8629235161     -0.0000000000      0.4368436063
 H     -0.8300590823     -0.0000000000      0.4232761004
3
# ORCA AIMD Position Step 717, t=358.50 fs, E_Pot=-13301.32575552 kJ mol^-1, Unit is Angstrom
 O     -0.0023703071      0.0000000000     -0.0597569117
 H      0.8597412982     -0.0000000000      0.4399713362
 H     -0.8221197283     -0.0000000000      0.4238218744
3
# ORCA AIMD Position Step 718, t=359.00 fs, E_Pot=-13303.02213811 kJ mol^-1, Unit is Angstrom
 O     -0.0024493549      0.0000000000     -0.0600866422
 H      0.8516390858     -0.0000000000      0.4428050985
 H     -0.8127628673     -0.0000000000      0.4262216029
3
# ORCA AIMD Position Step 719, t=359.50 fs, E_Pot=-13305.09069452 kJ mol^-1, Unit is Angstrom
 O     -0.0022763947      0.0000000000     -0.0605182244
 H      0.8395826003     -0.0000000000      0.4452178031
 H     -0.8034516098     -0.0000000000      0.4306589814
3
# ORCA AIMD Position Step 720, t=360.00 fs, E_Pot=-13307.21819385 kJ mol^-1, Unit is Angstrom
 O     -0.0018457816      0.0000000000     -0.0611085212
 H      0.8236824995     -0.0000000000      0.4476023058
 H     -0.7943862102     -0.0000000000      0.4376436836
3
# ORCA AIMD Position Step 721, t=360.50 fs, E_Pot=-13308.83558170 kJ mol^-1, Unit is Angstrom
 O     -0.0012126336      0.0000000000     -0.0618682479
 H      0.8057576655     -0.0000000000      0.4503006667
 H     -0.7865107157     -0.0000000000      0.4470037233
3
# ORCA AIMD Position Step 722, t=361.00 fs, E_Pot=-13309.63006472 kJ mol^-1, Unit is Angstrom
 O     -0.0004664672      0.0000000000     -0.0628105821
 H      0.7876497042      0.0000000000      0.4538548269
 H     -0.7802459264     -0.0000000000      0.4584063134
3
# ORCA AIMD Position Step 723, t=361.50 fs, E_Pot=-13309.63731263 kJ mol^-1, Unit is Angstrom
 O      0.0003257499      0.0000000000     -0.0640010216
 H      0.7701284981      0.0000000000      0.4591228246
 H     -0.7752988077     -0.0000000000      0.4720329994
3
# ORCA AIMD Position Step 724, t=362.00 fs, E_Pot=-13309.23760020 kJ mol^-1, Unit is Angstrom
 O      0.0010205423      0.0000000000     -0.0653998295
 H      0.7554174146      0.0000000000      0.4665635591
 H     -0.7716154866     -0.0000000000      0.4867941781
3
# ORCA AIMD Position Step 725, t=362.50 fs, E_Pot=-13308.99437314 kJ mol^-1, Unit is Angstrom
 O      0.0015371993      0.0000000000     -0.0670248235
 H      0.7442793066      0.0000000000      0.4767958463
 H     -0.7686777704     -0.0000000000      0.5023538338
3
# ORCA AIMD Position Step 726, t=363.00 fs, E_Pot=-13309.20320422 kJ mol^-1, Unit is Angstrom
 O      0.0017985524      0.0000000000     -0.0687818863
 H      0.7375329646      0.0000000000      0.4895460719
 H     -0.7660796306     -0.0000000000      0.5174917514
3
# ORCA AIMD Position Step 727, t=363.50 fs, E_Pot=-13309.62713837 kJ mol^-1, Unit is Angstrom
 O      0.0017996006      0.0000000000     -0.0706887370
 H      0.7346542300      0.0000000000      0.5050494971
 H     -0.7632175340     -0.0000000000      0.5322539059
3
# ORCA AIMD Position Step 728, t=364.00 fs, E_Pot=-13309.72386487 kJ mol^-1, Unit is Angstrom
 O      0.0015682944      0.0000000000     -0.0724756671
 H      0.7350856170      0.0000000000      0.5210051856
 H     -0.7599776235     -0.0000000000      0.5446604136
3
# ORCA AIMD Position Step 729, t=364.50 fs, E_Pot=-13309.13603257 kJ mol^-1, Unit is Angstrom
 O      0.0011420534      0.0000000000     -0.0741943623
 H      0.7377267755      0.0000000000      0.5376513950
 H     -0.7558534740     -0.0000000000      0.5552933758
3
# ORCA AIMD Position Step 730, t=365.00 fs, E_Pot=-13307.77802401 kJ mol^-1, Unit is Angstrom
 O      0.0005861633      0.0000000000     -0.0757379427
 H      0.7414464885      0.0000000000      0.5537434289
 H     -0.7507500869     -0.0000000000      0.5637010862
3
# ORCA AIMD Position Step 731, t=365.50 fs, E_Pot=-13306.06114462 kJ mol^-1, Unit is Angstrom
 O     -0.0000016218      0.0000000000     -0.0769488551
 H      0.7450182503      0.0000000000      0.5673947721
 H     -0.7449925097     -0.0000000000      0.5692693739
3
# ORCA AIMD Position Step 732, t=366.00 fs, E_Pot=-13304.21003683 kJ mol^-1, Unit is Angstrom
 O     -0.0006320335      0.0000000000     -0.0779148890
 H      0.7480737554      0.0000000000      0.5793968609
 H     -0.7380421041     -0.0000000000      0.5726001988
3
# ORCA AIMD Position Step 733, t=366.50 fs, E_Pot=-13302.68176048 kJ mol^-1, Unit is Angstrom
 O     -0.0012177608      0.0000000000     -0.0785406948
 H      0.7498454029      0.0000000000      0.5884030804
 H     -0.7305170749     -0.0000000000      0.5735267828
3
# ORCA AIMD Position Step 734, t=367.00 fs, E_Pot=-13301.78370265 kJ mol^-1, Unit is Angstrom
 O     -0.0016953812      0.0000000000     -0.0787969345
 H      0.7499321898      0.0000000000      0.5937467944
 H     -0.7230230589     -0.0000000000      0.5722501113
3
# ORCA AIMD Position Step 735, t=367.50 fs, E_Pot=-13301.67388890 kJ mol^-1, Unit is Angstrom
 O     -0.0019911924      0.0000000000     -0.0786866312
 H      0.7482729509      0.0000000000      0.5949404923
 H     -0.7166686972     -0.0000000000      0.5693056767
3
# ORCA AIMD Position Step 736, t=368.00 fs, E_Pot=-13302.26452912 kJ mol^-1, Unit is Angstrom
 O     -0.0020729333      0.0000000000     -0.0782845135
 H      0.7452813302      0.0000000000      0.5923483523
 H     -0.7123796832     -0.0000000000      0.5655153952
3
# ORCA AIMD Position Step 737, t=368.50 fs, E_Pot=-13303.49384441 kJ mol^-1, Unit is Angstrom
 O     -0.0019545365      0.0000000000     -0.0775441823
 H      0.7405607099      0.0000000000      0.5857055430
 H     -0.7095382603     -0.0000000000      0.5604076503
3
# ORCA AIMD Position Step 738, t=369.00 fs, E_Pot=-13305.01265678 kJ mol^-1, Unit is Angstrom
 O     -0.0016263209      0.0000000000     -0.0765211678
 H      0.7346546578      0.0000000000      0.5753876238
 H     -0.7088416532     -0.0000000000      0.5544882585
3
# ORCA AIMD Position Step 739, t=369.50 fs, E_Pot=-13306.32186770 kJ mol^-1, Unit is Angstrom
 O     -0.0011524671      0.0000000000     -0.0754127809
 H      0.7290414391      0.0000000000      0.5633995975
 H     -0.7107494534     -0.0000000000      0.5488839425
3
# ORCA AIMD Position Step 740, t=370.00 fs, E_Pot=-13307.31988645 kJ mol^-1, Unit is Angstrom
 O     -0.0005337805      0.0000000000     -0.0741810079
 H      0.7240464968      0.0000000000      0.5494558718
 H     -0.7155743193     -0.0000000000      0.5432769372
3
# ORCA AIMD Position Step 741, t=370.50 fs, E_Pot=-13307.84559684 kJ mol^-1, Unit is Angstrom
 O      0.0001449407      0.0000000000     -0.0729297119
 H      0.7208435835      0.0000000000      0.5349572585
 H     -0.7231440852      0.0000000000      0.5379149506
3
# ORCA AIMD Position Step 742, t=371.00 fs, E_Pot=-13308.04672892 kJ mol^-1, Unit is Angstrom
 O      0.0008057071      0.0000000000     -0.0717064471
 H      0.7204345807      0.0000000000      0.5207963527
 H     -0.7332227828      0.0000000000      0.5326601680
3
# ORCA AIMD Position Step 743, t=371.50 fs, E_Pot=-13308.28032376 kJ mol^-1, Unit is Angstrom
 O      0.0013535185      0.0000000000     -0.0705660626
 H      0.7237104061      0.0000000000      0.5080150273
 H     -0.7451934842      0.0000000000      0.5273412847
3
# ORCA AIMD Position Step 744, t=372.00 fs, E_Pot=-13308.88172086 kJ mol^-1, Unit is Angstrom
 O      0.0017314538      0.0000000000     -0.0694821757
 H      0.7314368505      0.0000000000      0.4967284192
 H     -0.7589185271      0.0000000000      0.5214244140
3
# ORCA AIMD Position Step 745, t=372.50 fs, E_Pot=-13309.83157000 kJ mol^-1, Unit is Angstrom
 O      0.0018679174      0.0000000000     -0.0684956303
 H      0.7434409848      0.0000000000      0.4876790836
 H     -0.7730886147      0.0000000000      0.5148152774
3
# ORCA AIMD Position Step 746, t=373.00 fs, E_Pot=-13310.72733296 kJ mol^-1, Unit is Angstrom
 O      0.0017449724      0.0000000000     -0.0676098653
 H      0.7587581625      0.0000000000      0.4809715563
 H     -0.7864544064      0.0000000000      0.5074639217
3
# ORCA AIMD Position Step 747, t=373.50 fs, E_Pot=-13311.07215110 kJ mol^-1, Unit is Angstrom
 O      0.0013944015      0.0000000000     -0.0668054124
 H      0.7758385959      0.0000000000      0.4762366820
 H     -0.7979705697      0.0000000000      0.4994304990
3
# ORCA AIMD Position Step 748, t=374.00 fs, E_Pot=-13310.60970493 kJ mol^-1, Unit is Angstrom
 O      0.0008648593      0.0000000000     -0.0660245807
 H      0.7935886567      0.0000000000      0.4727043744
 H     -0.8073157242      0.0000000000      0.4905694286
3
# ORCA AIMD Position Step 749, t=374.50 fs, E_Pot=-13309.44707975 kJ mol^-1, Unit is Angstrom
 O      0.0002383403      0.0000000000     -0.0652525552
 H      0.8101528123     -0.0000000000      0.4697909861
 H     -0.8139357545      0.0000000000      0.4812292097
3
# ORCA AIMD Position Step 750, t=375.00 fs, E_Pot=-13307.96627606 kJ mol^-1, Unit is Angstrom
 O     -0.0004108523      0.0000000000     -0.0644720850
 H      0.8242743498     -0.0000000000      0.4669486776
 H     -0.8177532932      0.0000000000      0.4716838763
3
# ORCA AIMD Position Step 751, t=375.50 fs, E_Pot=-13306.54144150 kJ mol^-1, Unit is Angstrom
 O     -0.0010294636      0.0000000000     -0.0636624499
 H      0.8353379677     -0.0000000000      0.4637262640
 H     -0.8189982974      0.0000000000      0.4620557419
3
# ORCA AIMD Position Step 752, t=376.00 fs, E_Pot=-13305.47740204 kJ mol^-1, Unit is Angstrom
 O     -0.0015536697      0.0000000000     -0.0628387996
 H      0.8426585208     -0.0000000000      0.4599139032
 H     -0.8179986389      0.0000000000      0.4527951056
3
# ORCA AIMD Position Step 753, t=376.50 fs, E_Pot=-13304.99543132 kJ mol^-1, Unit is Angstrom
 O     -0.0018990923      0.0000000000     -0.0620845532
 H      0.8455499195     -0.0000000000      0.4557430288
 H     -0.8154074812      0.0000000000      0.4449945638
3
# ORCA AIMD Position Step 754, t=377.00 fs, E_Pot=-13305.07396894 kJ mol^-1, Unit is Angstrom
 O     -0.0020404334      0.0000000000     -0.0614350260
 H      0.8443514593     -0.0000000000      0.4513708432
 H     -0.8119656524      0.0000000000      0.4390574379
3
# ORCA AIMD Position Step 755, t=377.50 fs, E_Pot=-13305.56686467 kJ mol^-1, Unit is Angstrom
 O     -0.0019821559      0.0000000000     -0.0608507591
 H      0.8393976018     -0.0000000000      0.4465198519
 H     -0.8079367755      0.0000000000      0.4346349306
3
# ORCA AIMD Position Step 756, t=378.00 fs, E_Pot=-13306.22818336 kJ mol^-1, Unit is Angstrom
 O     -0.0017218331      0.0000000000     -0.0603805612
 H      0.8312857685     -0.0000000000      0.4415673036
 H     -0.8039567922      0.0000000000      0.4321244871
3
# ORCA AIMD Position Step 757, t=378.50 fs, E_Pot=-13306.79145928 kJ mol^-1, Unit is Angstrom
 O     -0.0012752445      0.0000000000     -0.0600643042
 H      0.8207238137     -0.0000000000      0.4369088856
 H     -0.8004831020      0.0000000000      0.4317632657
3
# ORCA AIMD Position Step 758, t=379.00 fs, E_Pot=-13307.02743440 kJ mol^-1, Unit is Angstrom
 O     -0.0006851905      0.0000000000     -0.0599494538
 H      0.8087434514     -0.0000000000      0.4331310731
 H     -0.7978680922      0.0000000000      0.4337181701
3
# ORCA AIMD Position Step 759, t=379.50 fs, E_Pot=-13306.81947567 kJ mol^-1, Unit is Angstrom
 O      0.0000271465      0.0000000000     -0.0600827343
 H      0.7956737188     -0.0000000000      0.4307114622
 H     -0.7961045885      0.0000000000      0.4382532135
3
# ORCA AIMD Position Step 760, t=380.00 fs, E_Pot=-13306.36283846 kJ mol^-1, Unit is Angstrom
 O      0.0007168833      0.0000000000     -0.0605049356
 H      0.7839090910     -0.0000000000      0.4306915615
 H     -0.7952874805      0.0000000000      0.4449743028
3
# ORCA AIMD Position Step 761, t=380.50 fs, E_Pot=-13306.20307112 kJ mol^-1, Unit is Angstrom
 O      0.0012941626      0.0000000000     -0.0612526141
 H      0.7745913917     -0.0000000000      0.4338248234
 H     -0.7951323719      0.0000000000      0.4537082110
3
# ORCA AIMD Position Step 762, t=381.00 fs, E_Pot=-13306.86880810 kJ mol^-1, Unit is Angstrom
 O      0.0016559048      0.0000000000     -0.0623049312
 H      0.7689318879     -0.0000000000      0.4404872899
 H     -0.7952144477      0.0000000000      0.4637481472
3
# ORCA AIMD Position Step 763, t=381.50 fs, E_Pot=-13308.37760805 kJ mol^-1, Unit is Angstrom
 O      0.0017511104      0.0000000000     -0.0635947454
 H      0.7672406143     -0.0000000000      0.4504339840
 H     -0.7950342801      0.0000000000      0.4742734144
3
# ORCA AIMD Position Step 764, t=382.00 fs, E_Pot=-13310.18139150 kJ mol^-1, Unit is Angstrom
 O      0.0015894829      0.0000000000     -0.0650468238
 H      0.7689101934     -0.0000000000      0.4630463871
 H     -0.7941385037      0.0000000000      0.4847084346
3
# ORCA AIMD Position Step 765, t=382.50 fs, E_Pot=-13311.58599438 kJ mol^-1, Unit is Angstrom
 O      0.0012109811      0.0000000000     -0.0666202223
 H      0.7729135766     -0.0000000000      0.4778174381
 H     -0.7921342978      0.0000000000      0.4949104022
3
# ORCA AIMD Position Step 766, t=383.00 fs, E_Pot=-13312.06881394 kJ mol^-1, Unit is Angstrom
 O      0.0006729683      0.0000000000     -0.0682481198
 H      0.7780390915     -0.0000000000      0.4939230890
 H     -0.7887204601      0.0000000000      0.5046427788
3
# ORCA AIMD Position Step 767, t=383.50 fs, E_Pot=-13311.51271792 kJ mol^-1, Unit is Angstrom
 O      0.0000391570      0.0000000000     -0.0698625342
 H      0.7830728906     -0.0000000000      0.5104775078
 H     -0.7836943917      0.0000000000      0.5137123841
3
# ORCA AIMD Position Step 768, t=384.00 fs, E_Pot=-13310.18931358 kJ mol^-1, Unit is Angstrom
 O     -0.0006180138      0.0000000000     -0.0713771575
 H      0.7868600280     -0.0000000000      0.5263802800
 H     -0.7770508988      0.0000000000      0.5218497490
3
# ORCA AIMD Position Step 769, t=384.50 fs, E_Pot=-13308.54644407 kJ mol^-1, Unit is Angstrom
 O     -0.0012420089      0.0000000000     -0.0727429019
 H      0.7885424406     -0.0000000000      0.5409040349
 H     -0.7688292466      0.0000000000      0.5290031209
3
# ORCA AIMD Position Step 770, t=385.00 fs, E_Pot=-13307.13099557 kJ mol^-1, Unit is Angstrom
 O     -0.0017492732      0.0000000000     -0.0738497130
 H      0.7874625386     -0.0000000000      0.5526651766
 H     -0.7596980326      0.0000000000      0.5348093123
3
# ORCA AIMD Position Step 771, t=385.50 fs, E_Pot=-13306.19727693 kJ mol^-1, Unit is Angstrom
 O     -0.0021176024      0.0000000000     -0.0747175344
 H      0.7832935458     -0.0000000000      0.5616648269
 H     -0.7496829097      0.0000000000      0.5395837440
3
# ORCA AIMD Position Step 772, t=386.00 fs, E_Pot=-13305.84085455 kJ mol^-1, Unit is Angstrom
 O     -0.0023099786      0.0000000000     -0.0753314979
 H      0.7759680372     -0.0000000000      0.5675350038
 H     -0.7393040013      0.0000000000      0.5434584098
3
# ORCA AIMD Position Step 773, t=386.50 fs, E_Pot=-13305.98146675 kJ mol^-1, Unit is Angstrom
 O     -0.0022952317      0.0000000000     -0.0756674977
 H      0.7661649075     -0.0000000000      0.5698774805
 H     -0.7297349353      0.0000000000      0.5464489297
3
# ORCA AIMD Position Step 774, t=387.00 fs, E_Pot=-13306.37483799 kJ mol^-1, Unit is Angstrom
 O     -0.0020717561      0.0000000000     -0.0757592569
 H      0.7543554829     -0.0000000000      0.5689256013
 H     -0.7214725216      0.0000000000      0.5488572132
3
# ORCA AIMD Position Step 775, t=387.50 fs, E_Pot=-13306.68260232 kJ mol^-1, Unit is Angstrom
 O     -0.0016483970      0.0000000000     -0.0756473302
 H      0.7410864034      0.0000000000      0.5650352609
 H     -0.7149230071      0.0000000000      0.5509710507
3
# ORCA AIMD Position Step 776, t=388.00 fs, E_Pot=-13306.61277832 kJ mol^-1, Unit is Angstrom
 O     -0.0011047097      0.0000000000     -0.0753969327
 H      0.7286156675      0.0000000000      0.5592540388
 H     -0.7110816889      0.0000000000      0.5527779573
3
# ORCA AIMD Position Step 777, t=388.50 fs, E_Pot=-13306.06375823 kJ mol^-1, Unit is Angstrom
 O     -0.0004584624      0.0000000000     -0.0750474796
 H      0.7170959403      0.0000000000      0.5519915232
 H     -0.7098192138      0.0000000000      0.5544939455
3
# ORCA AIMD Position Step 778, t=389.00 fs, E_Pot=-13305.13008875 kJ mol^-1, Unit is Angstrom
 O      0.0002129613      0.0000000000     -0.0746554937
 H      0.7078296786      0.0000000000      0.5442131733
 H     -0.7112098048      0.0000000000      0.5560506866
3
# ORCA AIMD Position Step 779, t=389.50 fs, E_Pot=-13304.18691508 kJ mol^-1, Unit is Angstrom
 O      0.0008411072      0.0000000000     -0.0742602220
 H      0.7018289089      0.0000000000      0.5366867584
 H     -0.7151789818      0.0000000000      0.5573033394
3
# ORCA AIMD Position Step 780, t=390.00 fs, E_Pot=-13303.89316556 kJ mol^-1, Unit is Angstrom
 O      0.0013073234      0.0000000000     -0.0739195401
 H      0.7004184342      0.0000000000      0.5306769113
 H     -0.7211683027      0.0000000000      0.5579058748
3
# ORCA AIMD Position Step 781, t=390.50 fs, E_Pot=-13304.67229605 kJ mol^-1, Unit is Angstrom
 O      0.0015451715      0.0000000000     -0.0736509551
 H      0.7039872397      0.0000000000      0.5267642438
 H     -0.7285122389      0.0000000000      0.5575555540
3
# ORCA AIMD Position Step 782, t=391.00 fs, E_Pot=-13306.41943113 kJ mol^-1, Unit is Angstrom
 O      0.0015392016      0.0000000000     -0.0734281268
 H      0.7124449877      0.0000000000      0.5248218325
 H     -0.7368752329      0.0000000000      0.5559612307
3
# ORCA AIMD Position Step 783, t=391.50 fs, E_Pot=-13308.56169802 kJ mol^-1, Unit is Angstrom
 O      0.0012924192      0.0000000000     -0.0732008728
 H      0.7255269392      0.0000000000      0.5244041233
 H     -0.7460402470      0.0000000000      0.5527719578
3
# ORCA AIMD Position Step 784, t=392.00 fs, E_Pot=-13310.24598420 kJ mol^-1, Unit is Angstrom
 O      0.0008395077      0.0000000000     -0.0729137050
 H      0.7420026259      0.0000000000      0.5248297494
 H     -0.7553273119     -0.0000000000      0.5477883974
3
# ORCA AIMD Position Step 785, t=392.50 fs, E_Pot=-13310.92353197 kJ mol^-1, Unit is Angstrom
 O      0.0002506060      0.0000000000     -0.0725135628
 H      0.7599761609      0.0000000000      0.5252215987
 H     -0.7639537847     -0.0000000000      0.5410454818
3
# ORCA AIMD Position Step 786, t=393.00 fs, E_Pot=-13310.64026879 kJ mol^-1, Unit is Angstrom
 O     -0.0003854625      0.0000000000     -0.0719663935
 H      0.7773655619      0.0000000000      0.5247506608
 H     -0.7712474927     -0.0000000000      0.5328317352
3
# ORCA AIMD Position Step 787, t=393.50 fs, E_Pot=-13309.82208323 kJ mol^-1, Unit is Angstrom
 O     -0.0010042544      0.0000000000     -0.0712438624
 H      0.7929694198      0.0000000000      0.5227964477
 H     -0.7770298695     -0.0000000000      0.5233179181
3
# ORCA AIMD Position Step 788, t=394.00 fs, E_Pot=-13308.92934112 kJ mol^-1, Unit is Angstrom
 O     -0.0015534625      0.0000000000     -0.0703305648
 H      0.8059775083      0.0000000000      0.5189282086
 H     -0.7813209141     -0.0000000000      0.5126902757
3
# ORCA AIMD Position Step 789, t=394.50 fs, E_Pot=-13308.23702775 kJ mol^-1, Unit is Angstrom
 O     -0.0020140492      0.0000000000     -0.0691706815
 H      0.8164376540      0.0000000000      0.5126106131
 H     -0.7844706170     -0.0000000000      0.5005981763
3
# ORCA AIMD Position Step 790, t=395.00 fs, E_Pot=-13307.93802754 kJ mol^-1, Unit is Angstrom
 O     -0.0023174202      0.0000000000     -0.0678278869
 H      0.8233623228      0.0000000000      0.5039594277
 H     -0.7865801748     -0.0000000000      0.4879364937
3
# ORCA AIMD Position Step 791, t=395.50 fs, E_Pot=-13308.02764430 kJ mol^-1, Unit is Angstrom
 O     -0.0024250661      0.0000000000     -0.0663257562
 H      0.8265442146      0.0000000000      0.4929666114
 H     -0.7880535084     -0.0000000000      0.4750874556
3
# ORCA AIMD Position Step 792, t=396.00 fs, E_Pot=-13308.34322674 kJ mol^-1, Unit is Angstrom
 O     -0.0023058047      0.0000000000     -0.0647724669
 H      0.8259206001      0.0000000000      0.4803288939
 H     -0.7893228125     -0.0000000000      0.4630713287
3
# ORCA AIMD Position Step 793, t=396.50 fs, E_Pot=-13308.60666571 kJ mol^-1, Unit is Angstrom
 O     -0.0019519982      0.0000000000     -0.0632137441
 H      0.8218914528      0.0000000000      0.4663962368
 H     -0.7909092905     -0.0000000000      0.4522639003
3
# ORCA AIMD Position Step 794, t=397.00 fs, E_Pot=-13308.47592851 kJ mol^-1, Unit is Angstrom
 O     -0.0013967751      0.0000000000     -0.0617706082
 H      0.8153575018      0.0000000000      0.4523173252
 H     -0.7931878550     -0.0000000000      0.4434373246
3
# ORCA AIMD Position Step 795, t=397.50 fs, E_Pot=-13307.67102322 kJ mol^-1, Unit is Angstrom
 O     -0.0006833074      0.0000000000     -0.0604870469
 H      0.8073013045      0.0000000000      0.4386879078
 H     -0.7964558331     -0.0000000000      0.4366940266
3
# ORCA AIMD Position Step 796, t=398.00 fs, E_Pot=-13306.10424059 kJ mol^-1, Unit is Angstrom
 O      0.0001091399      0.0000000000     -0.0594267464
 H      0.7990389257      0.0000000000      0.4264279499
 H     -0.8007711965     -0.0000000000      0.4321248692
3
# ORCA AIMD Position Step 797, t=398.50 fs, E_Pot=-13304.00474162 kJ mol^-1, Unit is Angstrom
 O      0.0008997157      0.0000000000     -0.0586220745
 H      0.7918172953      0.0000000000      0.4162045870
 H     -0.8060976038     -0.0000000000      0.4295764603
3
# ORCA AIMD Position Step 798, t=399.00 fs, E_Pot=-13302.09910942 kJ mol^-1, Unit is Angstrom
 O      0.0015645489      0.0000000000     -0.0581359937
 H      0.7871838365      0.0000000000      0.4091231363
 H     -0.8120163932     -0.0000000000      0.4289428253
3
# ORCA AIMD Position Step 799, t=399.50 fs, E_Pot=-13301.50651344 kJ mol^-1, Unit is Angstrom
 O      0.0019167226      0.0000000000     -0.0580496650
 H      0.7866916702      0.0000000000      0.4067297437
 H     -0.8171139374     -0.0000000000      0.4299660071
3
# ORCA AIMD Position Step 800, t=400.00 fs, E_Pot=-13302.37142878 kJ mol^-1, Unit is Angstrom
 O      0.0019857695      0.0000000000     -0.0583303528
 H      0.7904075548     -0.0000000000      0.4086176538
 H     -0.8219257362     -0.0000000000      0.4325331810
3
# ORCA AIMD Position Step 801, t=400.50 fs, E_Pot=-13304.22358892 kJ mol^-1, Unit is Angstrom
 O      0.0017471110      0.0000000000     -0.0589770613
 H      0.7981836754     -0.0000000000      0.4149009041
 H     -0.8259138627     -0.0000000000      0.4365145022
3
# ORCA AIMD Position Step 802, t=401.00 fs, E_Pot=-13305.92890942 kJ mol^-1, Unit is Angstrom
 O      0.0012575066      0.0000000000     -0.0598803715
 H      0.8081743693     -0.0000000000      0.4244453887
 H     -0.8281335448     -0.0000000000      0.4413073790
3
# ORCA AIMD Position Step 803, t=401.50 fs, E_Pot=-13306.82904541 kJ mol^-1, Unit is Angstrom
 O      0.0006020018      0.0000000000     -0.0609500703
 H      0.8186205652     -0.0000000000      0.4361302781
 H     -0.8281755525     -0.0000000000      0.4466007748
3
# ORCA AIMD Position Step 804, t=402.00 fs, E_Pot=-13306.88110300 kJ mol^-1, Unit is Angstrom
 O     -0.0001310790      0.0000000000     -0.0621087433
 H      0.8279282765     -0.0000000000      0.4489125823
 H     -0.8258477883     -0.0000000000      0.4522089554
3
# ORCA AIMD Position Step 805, t=402.50 fs, E_Pot=-13306.46544069 kJ mol^-1, Unit is Angstrom
 O     -0.0008568152      0.0000000000     -0.0632873066
 H      0.8347484173     -0.0000000000      0.4618211901
 H     -0.8211490267     -0.0000000000      0.4580065327
3
# ORCA AIMD Position Step 806, t=403.00 fs, E_Pot=-13306.07974765 kJ mol^-1, Unit is Angstrom
 O     -0.0015098201      0.0000000000     -0.0644449339
 H      0.8381611069     -0.0000000000      0.4741938963
 H     -0.8141972070     -0.0000000000      0.4640077150
3
# ORCA AIMD Position Step 807, t=403.50 fs, E_Pot=-13306.13366331 kJ mol^-1, Unit is Angstrom
 O     -0.0020198293      0.0000000000     -0.0655248198
 H      0.8375058866     -0.0000000000      0.4852087562
 H     -0.8054471084     -0.0000000000      0.4701328296
3
# ORCA AIMD Position Step 808, t=404.00 fs, E_Pot=-13306.81802246 kJ mol^-1, Unit is Angstrom
 O     -0.0023792580      0.0000000000     -0.0665943422
 H      0.8323398233     -0.0000000000      0.4953225446
 H     -0.7945761841     -0.0000000000      0.4769945254
3
# ORCA AIMD Position Step 809, t=404.50 fs, E_Pot=-13308.04556422 kJ mol^-1, Unit is Angstrom
 O     -0.0025285804      0.0000000000     -0.0675869798
 H      0.8228112142     -0.0000000000      0.5036787294
 H     -0.7826775261     -0.0000000000      0.4843935081
3
# ORCA AIMD Position Step 810, t=405.00 fs, E_Pot=-13309.50129508 kJ mol^-1, Unit is Angstrom
 O     -0.0024448490      0.0000000000     -0.0684460122
 H      0.8099544081     -0.0000000000      0.5096927223
 H     -0.7711497062     -0.0000000000      0.4920140991
3
# ORCA AIMD Position Step 811, t=405.50 fs, E_Pot=-13310.84550362 kJ mol^-1, Unit is Angstrom
 O     -0.0021404414      0.0000000000     -0.0691969946
 H      0.7944800422     -0.0000000000      0.5136021012
 H     -0.7605069049      0.0000000000      0.5000243308
3
# ORCA AIMD Position Step 812, t=406.00 fs, E_Pot=-13311.68991498 kJ mol^-1, Unit is Angstrom
 O     -0.0016343162      0.0000000000     -0.0698928010
 H      0.7768002228     -0.0000000000      0.5158931332
 H     -0.7508603174      0.0000000000      0.5087771534
3
# ORCA AIMD Position Step 813, t=406.50 fs, E_Pot=-13311.60157979 kJ mol^-1, Unit is Angstrom
 O     -0.0009740838      0.0000000000     -0.0705672563
 H      0.7580201305     -0.0000000000      0.5170863755
 H     -0.7425594499      0.0000000000      0.5182888825
3
# ORCA AIMD Position Step 814, t=407.00 fs, E_Pot=-13310.41785590 kJ mol^-1, Unit is Angstrom
 O     -0.0002547482      0.0000000000     -0.0712346106
 H      0.7401280217     -0.0000000000      0.5178551418
 H     -0.7360846516      0.0000000000      0.5281123794
3
# ORCA AIMD Position Step 815, t=407.50 fs, E_Pot=-13308.41383763 kJ mol^-1, Unit is Angstrom
 O      0.0004393436      0.0000000000     -0.0719337867
 H      0.7244549352     -0.0000000000      0.5190229885
 H     -0.7314282076      0.0000000000      0.5380418723
3
# ORCA AIMD Position Step 816, t=408.00 fs, E_Pot=-13306.37579784 kJ mol^-1, Unit is Angstrom
 O      0.0009913164      0.0000000000     -0.0726604686
 H      0.7129111387     -0.0000000000      0.5213014741
 H     -0.7286453370      0.0000000000      0.5472972998
3
# ORCA AIMD Position Step 817, t=408.50 fs, E_Pot=-13304.93891038 kJ mol^-1, Unit is Angstrom
 O      0.0013632015      0.0000000000     -0.0734651048
 H      0.7056942495     -0.0000000000      0.5253574640
 H     -0.7273310154      0.0000000000      0.5560125144
3
# ORCA AIMD Position Step 818, t=409.00 fs, E_Pot=-13304.59837808 kJ mol^-1, Unit is Angstrom
 O      0.0014838208      0.0000000000     -0.0742537315
 H      0.7037248584     -0.0000000000      0.5309238070
 H     -0.7272760971      0.0000000000      0.5629632737
3
# ORCA AIMD Position Step 819, t=409.50 fs, E_Pot=-13305.11924927 kJ mol^-1, Unit is Angstrom
 O      0.0013674265      0.0000000000     -0.0750065147
 H      0.7063861993     -0.0000000000      0.5377718811
 H     -0.7280900261      0.0000000000      0.5680633910
3
# ORCA AIMD Position Step 820, t=410.00 fs, E_Pot=-13305.96159994 kJ mol^-1, Unit is Angstrom
 O      0.0010468316      0.0000000000     -0.0756885061
 H      0.7128487730     -0.0000000000      0.5454212660
 H     -0.7294641089      0.0000000000      0.5712385911
3
# ORCA AIMD Position Step 821, t=410.50 fs, E_Pot=-13306.60645451 kJ mol^-1, Unit is Angstrom
 O      0.0005747253      0.0000000000     -0.0762370119
 H      0.7220051248     -0.0000000000      0.5530279655
 H     -0.7311271789      0.0000000000      0.5723377880
3
# ORCA AIMD Position Step 822, t=411.00 fs, E_Pot=-13306.79105572 kJ mol^-1, Unit is Angstrom
 O     -0.0000311028      0.0000000000     -0.0766307648
 H      0.7335135872     -0.0000000000      0.5603139102
 H     -0.7330199230      0.0000000000      0.5713014994
3
# ORCA AIMD Position Step 823, t=411.50 fs, E_Pot=-13306.55116149 kJ mol^-1, Unit is Angstrom
 O     -0.0006354313      0.0000000000     -0.0767676442
 H      0.7448730556     -0.0000000000      0.5655526481
 H     -0.7347874748      0.0000000000      0.5682353141
3
# ORCA AIMD Position Step 824, t=412.00 fs, E_Pot=-13306.22187090 kJ mol^-1, Unit is Angstrom
 O     -0.0011988376      0.0000000000     -0.0766244098
 H      0.7554777137     -0.0000000000      0.5683036779
 H     -0.7364497351      0.0000000000      0.5632108650
3
# ORCA AIMD Position Step 825, t=412.50 fs, E_Pot=-13306.13511466 kJ mol^-1, Unit is Angstrom
 O     -0.0016615654      0.0000000000     -0.0761927863
 H      0.7644084196     -0.0000000000      0.5681078746
 H     -0.7380360136      0.0000000000      0.5565559290
3
# ORCA AIMD Position Step 826, t=413.00 fs, E_Pot=-13306.50266634 kJ mol^-1, Unit is Angstrom
 O     -0.0020084602      0.0000000000     -0.0754467426
 H      0.7716719386     -0.0000000000      0.5646790054
 H     -0.7397936105      0.0000000000      0.5481435757
3
# ORCA AIMD Position Step 827, t=413.50 fs, E_Pot=-13307.36641359 kJ mol^-1, Unit is Angstrom
 O     -0.0021804855      0.0000000000     -0.0744562353
 H      0.7764388939     -0.0000000000      0.5581837128
 H     -0.7418301763      0.0000000000      0.5389175127
3
# ORCA AIMD Position Step 828, t=414.00 fs, E_Pot=-13308.65685862 kJ mol^-1, Unit is Angstrom
 O     -0.0021612415      0.0000000000     -0.0732373870
 H      0.7787642169      0.0000000000      0.5486653654
 H     -0.7444609410      0.0000000000      0.5290902703
3
# ORCA AIMD Position Step 829, t=414.50 fs, E_Pot=-13310.19047607 kJ mol^-1, Unit is Angstrom
 O     -0.0019364937      0.0000000000     -0.0717737915
 H      0.7788526611      0.0000000000      0.5359354180
 H     -0.7481165873      0.0000000000      0.5185899954
3
# ORCA AIMD Position Step 830, t=415.00 fs, E_Pot=-13311.56437239 kJ mol^-1, Unit is Angstrom
 O     -0.0015066710      0.0000000000     -0.0701186691
 H      0.7770095028      0.0000000000      0.5204395862
 H     -0.7530955848      0.0000000000      0.5078156854
3
# ORCA AIMD Position Step 831, t=415.50 fs, E_Pot=-13312.28567437 kJ mol^-1, Unit is Angstrom
 O     -0.0009071178      0.0000000000     -0.0683724815
 H      0.7739014848      0.0000000000      0.5032058236
 H     -0.7595036903      0.0000000000      0.4973339161
3
# ORCA AIMD Position Step 832, t=416.00 fs, E_Pot=-13311.99614544 kJ mol^-1, Unit is Angstrom
 O     -0.0001981985      0.0000000000     -0.0666225062
 H      0.7704916553      0.0000000000      0.4853007913
 H     -0.7673458438      0.0000000000      0.4874632988
3
# ORCA AIMD Position Step 833, t=416.50 fs, E_Pot=-13310.84006608 kJ mol^-1, Unit is Angstrom
 O      0.0004671741      0.0000000000     -0.0651129418
 H      0.7682449201      0.0000000000      0.4695466791
 H     -0.7756599194      0.0000000000      0.4792575686
3
# ORCA AIMD Position Step 834, t=417.00 fs, E_Pot=-13309.31679414 kJ mol^-1, Unit is Angstrom
 O      0.0010326426      0.0000000000     -0.0638258572
 H      0.7680799040      0.0000000000      0.4561137449
 H     -0.7844700326      0.0000000000      0.4722618660
3
# ORCA AIMD Position Step 835, t=417.50 fs, E_Pot=-13307.94957145 kJ mol^-1, Unit is Angstrom
 O      0.0014470968      0.0000000000     -0.0627338354
 H      0.7708406478      0.0000000000      0.4450444649
 H     -0.7938090033     -0.0000000000      0.4659985501
3
# ORCA AIMD Position Step 836, t=418.00 fs, E_Pot=-13307.24892296 kJ mol^-1, Unit is Angstrom
 O      0.0016282452      0.0000000000     -0.0619176443
 H      0.7767876417      0.0000000000      0.4374090454
 H     -0.8026311889     -0.0000000000      0.4606793652
3
# ORCA AIMD Position Step 837, t=418.50 fs, E_Pot=-13307.17111956 kJ mol^-1, Unit is Angstrom
 O      0.0015629887      0.0000000000     -0.0613210400
 H      0.7861528671      0.0000000000      0.4327920796
 H     -0.8109606608     -0.0000000000      0.4558270130
3
# ORCA AIMD Position Step 838, t=419.00 fs, E_Pot=-13307.32818272 kJ mol^-1, Unit is Angstrom
 O      0.0012704104      0.0000000000     -0.0609597131
 H      0.7975552331      0.0000000000      0.4312138331
 H     -0.8177192178     -0.0000000000      0.4516702699
3
# ORCA AIMD Position Step 839, t=419.50 fs, E_Pot=-13307.25509671 kJ mol^-1, Unit is Angstrom
 O      0.0007840462      0.0000000000     -0.0607746514
 H      0.8104147217      0.0000000000      0.4320117639
 H     -0.8228591221     -0.0000000000      0.4479350361
3
# ORCA AIMD Position Step 840, t=420.00 fs, E_Pot=-13306.68615502 kJ mol^-1, Unit is Angstrom
 O      0.0001732812      0.0000000000     -0.0607265583
 H      0.8232836931      0.0000000000      0.4345208875
 H     -0.8260340165     -0.0000000000      0.4446625773
3
# ORCA AIMD Position Step 841, t=420.50 fs, E_Pot=-13305.77944260 kJ mol^-1, Unit is Angstrom
 O     -0.0004541237      0.0000000000     -0.0607768362
 H      0.8341959320      0.0000000000      0.4379050884
 H     -0.8269880706     -0.0000000000      0.4420763881
3
# ORCA AIMD Position Step 842, t=421.00 fs, E_Pot=-13304.86824737 kJ mol^-1, Unit is Angstrom
 O     -0.0010434253      0.0000000000     -0.0608944394
 H      0.8424111228      0.0000000000      0.4416446596
 H     -0.8258498514     -0.0000000000      0.4402034175
3
# ORCA AIMD Position Step 843, t=421.50 fs, E_Pot=-13304.27568952 kJ mol^-1, Unit is Angstrom
 O     -0.0015499536      0.0000000000     -0.0610637864
 H      0.8473853173      0.0000000000      0.4453928503
 H     -0.8227844176     -0.0000000000      0.4391431071
3
# ORCA AIMD Position Step 844, t=422.00 fs, E_Pot=-13304.26425880 kJ mol^-1, Unit is Angstrom
 O     -0.0019118329      0.0000000000     -0.0612731937
 H      0.8485237357      0.0000000000      0.4487517271
 H     -0.8181790777     -0.0000000000      0.4391079475
3
# ORCA AIMD Position Step 845, t=422.50 fs, E_Pot=-13304.93672612 kJ mol^-1, Unit is Angstrom
 O     -0.0021147766      0.0000000000     -0.0615421854
 H      0.8456222108      0.0000000000      0.4517930228
 H     -0.8120564260     -0.0000000000      0.4403360940
3
# ORCA AIMD Position Step 846, t=423.00 fs, E_Pot=-13306.19995318 kJ mol^-1, Unit is Angstrom
 O     -0.0021189910      0.0000000000     -0.0618735210
 H      0.8387300594      0.0000000000      0.4543352343
 H     -0.8050973844     -0.0000000000      0.4430528492
3
# ORCA AIMD Position Step 847, t=423.50 fs, E_Pot=-13307.84299381 kJ mol^-1, Unit is Angstrom
 O     -0.0019107815      0.0000000000     -0.0622970942
 H      0.8279286269      0.0000000000      0.4565301199
 H     -0.7976006573     -0.0000000000      0.4475809275
3
# ORCA AIMD Position Step 848, t=424.00 fs, E_Pot=-13309.46278646 kJ mol^-1, Unit is Angstrom
 O     -0.0014983008      0.0000000000     -0.0628384473
 H      0.8138641247      0.0000000000      0.4586051457
 H     -0.7900830593     -0.0000000000      0.4540982721
3
# ORCA AIMD Position Step 849, t=424.50 fs, E_Pot=-13310.60326474 kJ mol^-1, Unit is Angstrom
 O     -0.0009224419      0.0000000000     -0.0635228676
 H      0.7976658258      0.0000000000      0.4609548736
 H     -0.7830248055     -0.0000000000      0.4626116796
3
# ORCA AIMD Position Step 850, t=425.00 fs, E_Pot=-13310.97381503 kJ mol^-1, Unit is Angstrom
 O     -0.0002909656      0.0000000000     -0.0643295742
 H      0.7817541340      0.0000000000      0.4639708293
 H     -0.7771359204     -0.0000000000      0.4723997904
3
# ORCA AIMD Position Step 851, t=425.50 fs, E_Pot=-13310.68830853 kJ mol^-1, Unit is Angstrom
 O      0.0003563024      0.0000000000     -0.0653364942
 H      0.7663889226      0.0000000000      0.4684811492
 H     -0.7720441631     -0.0000000000      0.4838713282
3
# ORCA AIMD Position Step 852, t=426.00 fs, E_Pot=-13310.05084269 kJ mol^-1, Unit is Angstrom
 O      0.0009363323      0.0000000000     -0.0665733405
 H      0.7527405338      0.0000000000      0.4751875538
 H     -0.7676020227     -0.0000000000      0.4967961774
3
# ORCA AIMD Position Step 853, t=426.50 fs, E_Pot=-13309.56604924 kJ mol^-1, Unit is Angstrom
 O      0.0013424984      0.0000000000     -0.0679812721
 H      0.7424733011      0.0000000000      0.4842411688
 H     -0.7637814679     -0.0000000000      0.5100892855
3
# ORCA AIMD Position Step 854, t=427.00 fs, E_Pot=-13309.50461067 kJ mol^-1, Unit is Angstrom
 O      0.0015292944      0.0000000000     -0.0695456114
 H      0.7359651185     -0.0000000000      0.4958275809
 H     -0.7602381158     -0.0000000000      0.5233321039
3
# ORCA AIMD Position Step 855, t=427.50 fs, E_Pot=-13309.69979739 kJ mol^-1, Unit is Angstrom
 O      0.0014820516      0.0000000000     -0.0712010123
 H      0.7331638745     -0.0000000000      0.5095536807
 H     -0.7566870325     -0.0000000000      0.5358805679
3
# ORCA AIMD Position Step 856, t=428.00 fs, E_Pot=-13309.69943399 kJ mol^-1, Unit is Angstrom
 O      0.0012243986      0.0000000000     -0.0728510264
 H      0.7334717936     -0.0000000000      0.5245421535
 H     -0.7529054773     -0.0000000000      0.5470811570
3
# ORCA AIMD Position Step 857, t=428.50 fs, E_Pot=-13309.10974544 kJ mol^-1, Unit is Angstrom
 O      0.0007997357      0.0000000000     -0.0744322022
 H      0.7359587674     -0.0000000000      0.5400488133
 H     -0.7486521913     -0.0000000000      0.5566709570
3
# ORCA AIMD Position Step 858, t=429.00 fs, E_Pot=-13307.76292855 kJ mol^-1, Unit is Angstrom
 O      0.0002497950      0.0000000000     -0.0759100300
 H      0.7397114798     -0.0000000000      0.5555584982
 H     -0.7436762315     -0.0000000000      0.5646173910
3
# ORCA AIMD Position Step 859, t=429.50 fs, E_Pot=-13305.97669517 kJ mol^-1, Unit is Angstrom
 O     -0.0003273771      0.0000000000     -0.0771096524
 H      0.7435126648     -0.0000000000      0.5690400110
 H     -0.7383165277     -0.0000000000      0.5701763136
3
# ORCA AIMD Position Step 860, t=430.00 fs, E_Pot=-13304.27476996 kJ mol^-1, Unit is Angstrom
 O     -0.0008603373      0.0000000000     -0.0779552572
 H      0.7464997783     -0.0000000000      0.5794172010
 H     -0.7328444844     -0.0000000000      0.5732205826
3
# ORCA AIMD Position Step 861, t=430.50 fs, E_Pot=-13302.99617696 kJ mol^-1, Unit is Angstrom
 O     -0.0013250265      0.0000000000     -0.0784583973
 H      0.7482885791     -0.0000000000      0.5866228277
 H     -0.7272577271      0.0000000000      0.5740008082
3
# ORCA AIMD Position Step 862, t=431.00 fs, E_Pot=-13302.21399498 kJ mol^-1, Unit is Angstrom
 O     -0.0017456557      0.0000000000     -0.0786585482
 H      0.7487316766     -0.0000000000      0.5911417975
 H     -0.7210245879      0.0000000000      0.5726586372
3
# ORCA AIMD Position Step 863, t=431.50 fs, E_Pot=-13302.17897179 kJ mol^-1, Unit is Angstrom
 O     -0.0020042145      0.0000000000     -0.0785100963
 H      0.7475482522     -0.0000000000      0.5917925673
 H     -0.7157373119      0.0000000000      0.5696516358
3
# ORCA AIMD Position Step 864, t=432.00 fs, E_Pot=-13302.81481565 kJ mol^-1, Unit is Angstrom
 O     -0.0020652042      0.0000000000     -0.0780772705
 H      0.7450413646     -0.0000000000      0.5888327277
 H     -0.7122623937      0.0000000000      0.5657416545
3
# ORCA AIMD Position Step 865, t=432.50 fs, E_Pot=-13304.00572789 kJ mol^-1, Unit is Angstrom
 O     -0.0019364797      0.0000000000     -0.0773631297
 H      0.7412488846     -0.0000000000      0.5823462514
 H     -0.7105130326      0.0000000000      0.5608932704
3
# ORCA AIMD Position Step 866, t=433.00 fs, E_Pot=-13305.44566479 kJ mol^-1, Unit is Angstrom
 O     -0.0016292263      0.0000000000     -0.0764459220
 H      0.7367694688     -0.0000000000      0.5730307233
 H     -0.7109103507      0.0000000000      0.5556508569
3
# ORCA AIMD Position Step 867, t=433.50 fs, E_Pot=-13306.89741489 kJ mol^-1, Unit is Angstrom
 O     -0.0011478646      0.0000000000     -0.0753276763
 H      0.7319654513     -0.0000000000      0.5609413603
 H     -0.7137465179      0.0000000000      0.5499913970
3
# ORCA AIMD Position Step 868, t=434.00 fs, E_Pot=-13307.97871570 kJ mol^-1, Unit is Angstrom
 O     -0.0005730981      0.0000000000     -0.0741543469
 H      0.7279915989     -0.0000000000      0.5477861094
 H     -0.7188953721      0.0000000000      0.5445235364
3
# ORCA AIMD Position Step 869, t=434.50 fs, E_Pot=-13308.63085409 kJ mol^-1, Unit is Angstrom
 O      0.0000556444      0.0000000000     -0.0729360868
 H      0.7255473177     -0.0000000000      0.5339139549
 H     -0.7264305064      0.0000000000      0.5390594371
3
# ORCA AIMD Position Step 870, t=435.00 fs, E_Pot=-13308.93730699 kJ mol^-1, Unit is Angstrom
 O      0.0006453983      0.0000000000     -0.0717596665
 H      0.7255750137     -0.0000000000      0.5206261534
 H     -0.7358187910      0.0000000000      0.5336750669
3
# ORCA AIMD Position Step 871, t=435.50 fs, E_Pot=-13309.19479600 kJ mol^-1, Unit is Angstrom
 O      0.0011342248      0.0000000000     -0.0706353189
 H      0.7288041193     -0.0000000000      0.5083899512
 H     -0.7468065622      0.0000000000      0.5280655985
3
# ORCA AIMD Position Step 872, t=436.00 fs, E_Pot=-13309.67461801 kJ mol^-1, Unit is Angstrom
 O      0.0014540133      0.0000000000     -0.0695884382
 H      0.7356978514     -0.0000000000      0.4978166909
 H     -0.7587759856      0.0000000000      0.5220227434
3
# ORCA AIMD Position Step 873, t=436.50 fs, E_Pot=-13310.42011410 kJ mol^-1, Unit is Angstrom
 O      0.0015585412      0.0000000000     -0.0686307765
 H      0.7462155327     -0.0000000000      0.4892576258
 H     -0.7709527356      0.0000000000      0.5153817779
3
# ORCA AIMD Position Step 874, t=437.00 fs, E_Pot=-13311.16920098 kJ mol^-1, Unit is Angstrom
 O      0.0014359743      0.0000000000     -0.0677411465
 H      0.7599309350     -0.0000000000      0.4825808091
 H     -0.7827227526      0.0000000000      0.5079383666
3
# ORCA AIMD Position Step 875, t=437.50 fs, E_Pot=-13311.50736458 kJ mol^-1, Unit is Angstrom
 O      0.0011162613      0.0000000000     -0.0669359320
 H      0.7751549585     -0.0000000000      0.4777279410
 H     -0.7928722844      0.0000000000      0.5000108510
3
# ORCA AIMD Position Step 876, t=438.00 fs, E_Pot=-13311.17168089 kJ mol^-1, Unit is Angstrom
 O      0.0006201657      0.0000000000     -0.0661206192
 H      0.7918501008     -0.0000000000      0.4737852257
 H     -0.8016933853      0.0000000000      0.4910129025
3
# ORCA AIMD Position Step 877, t=438.50 fs, E_Pot=-13310.13958454 kJ mol^-1, Unit is Angstrom
 O      0.0000332215      0.0000000000     -0.0653104782
 H      0.8078359033     -0.0000000000      0.4703956209
 H     -0.8083631962      0.0000000000      0.4815439302
3
# ORCA AIMD Position Step 878, t=439.00 fs, E_Pot=-13308.60123087 kJ mol^-1, Unit is Angstrom
 O     -0.0006030662      0.0000000000     -0.0644532885
 H      0.8225705289     -0.0000000000      0.4669061125
 H     -0.8129986480      0.0000000000      0.4714281028
3
# ORCA AIMD Position Step 879, t=439.50 fs, E_Pot=-13306.89761765 kJ mol^-1, Unit is Angstrom
 O     -0.0012177835      0.0000000000     -0.0635494476
 H      0.8348846111     -0.0000000000      0.4629433239
 H     -0.8155559225      0.0000000000      0.4610451077
3
# ORCA AIMD Position Step 880, t=440.00 fs, E_Pot=-13305.35863977 kJ mol^-1, Unit is Angstrom
 O     -0.0017501666      0.0000000000     -0.0626024185
 H      0.8440059767      0.0000000000      0.4582232559
 H     -0.8162272916      0.0000000000      0.4507339061
3
# ORCA AIMD Position Step 881, t=440.50 fs, E_Pot=-13304.19480604 kJ mol^-1, Unit is Angstrom
 O     -0.0021518197      0.0000000000     -0.0616121994
 H      0.8495135617      0.0000000000      0.4525090146
 H     -0.8153598277      0.0000000000      0.4407313670
3
# ORCA AIMD Position Step 882, t=441.00 fs, E_Pot=-13303.72256186 kJ mol^-1, Unit is Angstrom
 O     -0.0023168213      0.0000000000     -0.0607772277
 H      0.8504342206      0.0000000000      0.4468325399
 H     -0.8136615776      0.0000000000      0.4331551515
3
# ORCA AIMD Position Step 883, t=441.50 fs, E_Pot=-13303.86205635 kJ mol^-1, Unit is Angstrom
 O     -0.0022520469      0.0000000000     -0.0600689529
 H      0.8473617034      0.0000000000      0.4410211867
 H     -0.8116171617      0.0000000000      0.4277247492
3
# ORCA AIMD Position Step 884, t=442.00 fs, E_Pot=-13304.43247382 kJ mol^-1, Unit is Angstrom
 O     -0.0019589450      0.0000000000     -0.0594837876
 H      0.8406882647      0.0000000000      0.4350686926
 H     -0.8095958423      0.0000000000      0.4243894868
3
# ORCA AIMD Position Step 885, t=442.50 fs, E_Pot=-13305.14466589 kJ mol^-1, Unit is Angstrom
 O     -0.0014143509      0.0000000000     -0.0590017362
 H      0.8301928708      0.0000000000      0.4287220506
 H     -0.8077442589      0.0000000000      0.4230849971
3
# ORCA AIMD Position Step 886, t=443.00 fs, E_Pot=-13305.48028263 kJ mol^-1, Unit is Angstrom
 O     -0.0006734860      0.0000000000     -0.0586990170
 H      0.8170902589      0.0000000000      0.4228507929
 H     -0.8064006739      0.0000000000      0.4241514888
3
# ORCA AIMD Position Step 887, t=443.50 fs, E_Pot=-13305.09931588 kJ mol^-1, Unit is Angstrom
 O      0.0001678154      0.0000000000     -0.0586432316
 H      0.8030271501      0.0000000000      0.4184513560
 H     -0.8056907199     -0.0000000000      0.4276654980
3
# ORCA AIMD Position Step 888, t=444.00 fs, E_Pot=-13304.12423175 kJ mol^-1, Unit is Angstrom
 O      0.0010072258      0.0000000000     -0.0588947181
 H      0.7895196234      0.0000000000      0.4165009020
 H     -0.8055063347     -0.0000000000      0.4336075515
3
# ORCA AIMD Position Step 889, t=444.50 fs, E_Pot=-13303.47091527 kJ mol^-1, Unit is Angstrom
 O      0.0016298569      0.0000000000     -0.0594607006
 H      0.7797059368      0.0000000000      0.4180972814
 H     -0.8055750639     -0.0000000000      0.4409944600
3
# ORCA AIMD Position Step 890, t=445.00 fs, E_Pot=-13303.98673203 kJ mol^-1, Unit is Angstrom
 O      0.0020089727      0.0000000000     -0.0604137266
 H      0.7736251690      0.0000000000      0.4239879493
 H     -0.8055116314     -0.0000000000      0.4502302430
3
# ORCA AIMD Position Step 891, t=445.50 fs, E_Pot=-13305.86627128 kJ mol^-1, Unit is Angstrom
 O      0.0020631328      0.0000000000     -0.0616566641
 H      0.7721440920      0.0000000000      0.4338230767
 H     -0.8048901854     -0.0000000000      0.4601230496
3
# ORCA AIMD Position Step 892, t=446.00 fs, E_Pot=-13308.37541276 kJ mol^-1, Unit is Angstrom
 O      0.0018147752      0.0000000000     -0.0630797167
 H      0.7745734391      0.0000000000      0.4466444467
 H     -0.8033775937     -0.0000000000      0.4698884047
3
# ORCA AIMD Position Step 893, t=446.50 fs, E_Pot=-13310.66217869 kJ mol^-1, Unit is Angstrom
 O      0.0013013131      0.0000000000     -0.0647355796
 H      0.7798928122      0.0000000000      0.4627300086
 H     -0.8005472850     -0.0000000000      0.4800847374
3
# ORCA AIMD Position Step 894, t=447.00 fs, E_Pot=-13311.79039458 kJ mol^-1, Unit is Angstrom
 O      0.0006008471      0.0000000000     -0.0665339240
 H      0.7866245117      0.0000000000      0.4809706183
 H     -0.7961611714     -0.0000000000      0.4903874938
3
# ORCA AIMD Position Step 895, t=447.50 fs, E_Pot=-13311.47018228 kJ mol^-1, Unit is Angstrom
 O     -0.0001817319      0.0000000000     -0.0683431444
 H      0.7930822289      0.0000000000      0.4997583113
 H     -0.7901977755     -0.0000000000      0.5003157895
3
# ORCA AIMD Position Step 896, t=448.00 fs, E_Pot=-13310.15948058 kJ mol^-1, Unit is Angstrom
 O     -0.0009230843      0.0000000000     -0.0699928367
 H      0.7976578540      0.0000000000      0.5170481920
 H     -0.7830066383     -0.0000000000      0.5092098648
3
# ORCA AIMD Position Step 897, t=448.50 fs, E_Pot=-13308.35280440 kJ mol^-1, Unit is Angstrom
 O     -0.0016203763      0.0000000000     -0.0715683955
 H      0.7997936607      0.0000000000      0.5334875175
 H     -0.7740750090     -0.0000000000      0.5177778453
3
# ORCA AIMD Position Step 898, t=449.00 fs, E_Pot=-13306.68630918 kJ mol^-1, Unit is Angstrom
 O     -0.0021766618      0.0000000000     -0.0729334542
 H      0.7986723694      0.0000000000      0.5474164600
 H     -0.7641243419     -0.0000000000      0.5255151474
3
# ORCA AIMD Position Step 899, t=449.50 fs, E_Pot=-13305.49985486 kJ mol^-1, Unit is Angstrom
 O     -0.0025660600      0.0000000000     -0.0741051207
 H      0.7938658895      0.0000000000      0.5587828568
 H     -0.7531373238     -0.0000000000      0.5327454687
3
# ORCA AIMD Position Step 900, t=450.00 fs, E_Pot=-13305.05138830 kJ mol^-1, Unit is Angstrom
 O     -0.0027278089      0.0000000000     -0.0749798158
 H      0.7857042782      0.0000000000      0.5663884779
 H     -0.7424084313     -0.0000000000      0.5390230286
3
# ORCA AIMD Position Step 901, t=450.50 fs, E_Pot=-13305.26316395 kJ mol^-1, Unit is Angstrom
 O     -0.0026533583      0.0000000000     -0.0755746827
 H      0.7744450890      0.0000000000      0.5702823965
 H     -0.7323309230     -0.0000000000      0.5445708518
3
# ORCA AIMD Position Step 902, t=451.00 fs, E_Pot=-13305.84712028 kJ mol^-1, Unit is Angstrom
 O     -0.0023472440      0.0000000000     -0.0759089395
 H      0.7606683612      0.0000000000      0.5706169138
 H     -0.7234128493     -0.0000000000      0.5495416663
3
# ORCA AIMD Position Step 903, t=451.50 fs, E_Pot=-13306.35879099 kJ mol^-1, Unit is Angstrom
 O     -0.0018296894      0.0000000000     -0.0760156037
 H      0.7451042555      0.0000000000      0.5677565968
 H     -0.7160633822     -0.0000000000      0.5540949608
3
# ORCA AIMD Position Step 904, t=452.00 fs, E_Pot=-13306.32106224 kJ mol^-1, Unit is Angstrom
 O     -0.0011651704      0.0000000000     -0.0759360891
 H      0.7294001472      0.0000000000      0.5624446211
 H     -0.7109065343     -0.0000000000      0.5581448782
3
# ORCA AIMD Position Step 905, t=452.50 fs, E_Pot=-13305.39157561 kJ mol^-1, Unit is Angstrom
 O     -0.0003859848      0.0000000000     -0.0757197671
 H      0.7140589614      0.0000000000      0.5552625152
 H     -0.7079326012     -0.0000000000      0.5618935160
3
# ORCA AIMD Position Step 906, t=453.00 fs, E_Pot=-13303.64373105 kJ mol^-1, Unit is Angstrom
 O      0.0003884889      0.0000000000     -0.0754360742
 H      0.7012256359      0.0000000000      0.5475702116
 H     -0.7073917417     -0.0000000000      0.5650830398
3
# ORCA AIMD Position Step 907, t=453.50 fs, E_Pot=-13301.58315994 kJ mol^-1, Unit is Angstrom
 O      0.0010970155      0.0000000000     -0.0751323575
 H      0.6918258050      0.0000000000      0.5401515186
 H     -0.7092376615     -0.0000000000      0.5676811342
3
# ORCA AIMD Position Step 908, t=454.00 fs, E_Pot=-13300.10066981 kJ mol^-1, Unit is Angstrom
 O      0.0016647348      0.0000000000     -0.0748485523
 H      0.6870609691     -0.0000000000      0.5338274017
 H     -0.7134836796     -0.0000000000      0.5695006884
3
# ORCA AIMD Position Step 909, t=454.50 fs, E_Pot=-13300.25951221 kJ mol^-1, Unit is Angstrom
 O      0.0019789204      0.0000000000     -0.0746275255
 H      0.6883675703     -0.0000000000      0.5297088242
 H     -0.7197770424     -0.0000000000      0.5701111234
3
# ORCA AIMD Position Step 910, t=455.00 fs, E_Pot=-13302.30770990 kJ mol^-1, Unit is Angstrom
 O      0.0019725694      0.0000000000     -0.0744787794
 H      0.6960357686     -0.0000000000      0.5283251895
 H     -0.7273444374     -0.0000000000      0.5691338559
3
# ORCA AIMD Position Step 911, t=455.50 fs, E_Pot=-13305.52361227 kJ mol^-1, Unit is Angstrom
 O      0.0016431040      0.0000000000     -0.0743531905
 H      0.7100157890     -0.0000000000      0.5292679006
 H     -0.7360951746     -0.0000000000      0.5661977956
3
# ORCA AIMD Position Step 912, t=456.00 fs, E_Pot=-13308.35608895 kJ mol^-1, Unit is Angstrom
 O      0.0010538731      0.0000000000     -0.0741876632
 H      0.7282606154     -0.0000000000      0.5316045750
 H     -0.7449877145     -0.0000000000      0.5612338672
3
# ORCA AIMD Position Step 913, t=456.50 fs, E_Pot=-13309.82554726 kJ mol^-1, Unit is Angstrom
 O      0.0003101580      0.0000000000     -0.0739125086
 H      0.7482776326     -0.0000000000      0.5340820028
 H     -0.7532004685     -0.0000000000      0.5543891784
3
# ORCA AIMD Position Step 914, t=457.00 fs, E_Pot=-13309.87488654 kJ mol^-1, Unit is Angstrom
 O     -0.0005103079      0.0000000000     -0.0734608863
 H      0.7686194321     -0.0000000000      0.5356591454
 H     -0.7605198126     -0.0000000000      0.5456438766
3
# ORCA AIMD Position Step 915, t=457.50 fs, E_Pot=-13308.87035859 kJ mol^-1, Unit is Angstrom
 O     -0.0013478325      0.0000000000     -0.0727730605
 H      0.7883326173     -0.0000000000      0.5354866557
 H     -0.7669397870     -0.0000000000      0.5348991795
3
# ORCA AIMD Position Step 916, t=458.00 fs, E_Pot=-13307.38046699 kJ mol^-1, Unit is Angstrom
 O     -0.0021201323      0.0000000000     -0.0718248901
 H      0.8059943628     -0.0000000000      0.5328748051
 H     -0.7723435727     -0.0000000000      0.5224616468
3
# ORCA AIMD Position Step 917, t=458.50 fs, E_Pot=-13306.00015957 kJ mol^-1, Unit is Angstrom
 O     -0.0027484577      0.0000000000     -0.0706219412
 H      0.8203770870     -0.0000000000      0.5274074915
 H     -0.7767535005     -0.0000000000      0.5088357269
3
# ORCA AIMD Position Step 918, t=459.00 fs, E_Pot=-13305.21370708 kJ mol^-1, Unit is Angstrom
 O     -0.0031528250      0.0000000000     -0.0692258764
 H      0.8303060785     -0.0000000000      0.5191132556
 H     -0.7802643648      0.0000000000      0.4949715892
3
# ORCA AIMD Position Step 919, t=459.50 fs, E_Pot=-13305.17714109 kJ mol^-1, Unit is Angstrom
 O     -0.0033050187      0.0000000000     -0.0675975522
 H      0.8358747262     -0.0000000000      0.5075728119
 H     -0.7834173903      0.0000000000      0.4806672319
3
# ORCA AIMD Position Step 920, t=460.00 fs, E_Pot=-13305.83061975 kJ mol^-1, Unit is Angstrom
 O     -0.0031616332      0.0000000000     -0.0658290020
 H      0.8367386844     -0.0000000000      0.4932935119
 H     -0.7865571669      0.0000000000      0.4668760616
3
# ORCA AIMD Position Step 921, t=460.50 fs, E_Pot=-13306.84933737 kJ mol^-1, Unit is Angstrom
 O     -0.0027059503      0.0000000000     -0.0639732662
 H      0.8330938873     -0.0000000000      0.4766463924
 H     -0.7901449799      0.0000000000      0.4540688971
3
# ORCA AIMD Position Step 922, t=461.00 fs, E_Pot=-13307.62247808 kJ mol^-1, Unit is Angstrom
 O     -0.0019683765      0.0000000000     -0.0621556857
 H      0.8256832364     -0.0000000000      0.4588127995
 H     -0.7944411178      0.0000000000      0.4430538099
3
# ORCA AIMD Position Step 923, t=461.50 fs, E_Pot=-13307.43771680 kJ mol^-1, Unit is Angstrom
 O     -0.0010093729      0.0000000000     -0.0604561879
 H      0.8156469272     -0.0000000000      0.4407744990
 H     -0.7996261360      0.0000000000      0.4341176400
3
# ORCA AIMD Position Step 924, t=462.00 fs, E_Pot=-13305.76337388 kJ mol^-1, Unit is Angstrom
 O      0.0000580886      0.0000000000     -0.0589736017
 H      0.8046793335     -0.0000000000      0.4239074978
 H     -0.8056013173      0.0000000000      0.4274529978
3
# ORCA AIMD Position Step 925, t=462.50 fs, E_Pot=-13302.66294822 kJ mol^-1, Unit is Angstrom
 O      0.0011103135      0.0000000000     -0.0577673803
 H      0.7945584976     -0.0000000000      0.4093063726
 H     -0.8121814197      0.0000000000      0.4229089484
3
# ORCA AIMD Position Step 926, t=463.00 fs, E_Pot=-13299.04757224 kJ mol^-1, Unit is Angstrom
 O      0.0020105432      0.0000000000     -0.0568901603
 H      0.7871430438     -0.0000000000      0.3980473142
 H     -0.8190544327      0.0000000000      0.4202447499
3
# ORCA AIMD Position Step 927, t=463.50 fs, E_Pot=-13296.96526013 kJ mol^-1, Unit is Angstrom
 O      0.0025292021      0.0000000000     -0.0564759594
 H      0.7847971756     -0.0000000000      0.3922739992
 H     -0.8249407315      0.0000000000      0.4194438588
3
# ORCA AIMD Position Step 928, t=464.00 fs, E_Pot=-13297.25937604 kJ mol^-1, Unit is Angstrom
 O      0.0026485244      0.0000000000     -0.0564825856
 H      0.7878636006     -0.0000000000      0.3917167277
 H     -0.8299010435      0.0000000000      0.4201063007
3
# ORCA AIMD Position Step 929, t=464.50 fs, E_Pot=-13299.49033249 kJ mol^-1, Unit is Angstrom
 O      0.0023633116      0.0000000000     -0.0568746578
 H      0.7956483239     -0.0000000000      0.3961165915
 H     -0.8331588619      0.0000000000      0.4219294165
3
# ORCA AIMD Position Step 930, t=465.00 fs, E_Pot=-13302.34117184 kJ mol^-1, Unit is Angstrom
 O      0.0017257935      0.0000000000     -0.0576114829
 H      0.8072200913     -0.0000000000      0.4049071069
 H     -0.8346119266      0.0000000000      0.4248338077
3
# ORCA AIMD Position Step 931, t=465.50 fs, E_Pot=-13304.36810770 kJ mol^-1, Unit is Angstrom
 O      0.0008498870      0.0000000000     -0.0586077592
 H      0.8205109744     -0.0000000000      0.4168862460
 H     -0.8340004008      0.0000000000      0.4286675885
3
# ORCA AIMD Position Step 932, t=466.00 fs, E_Pot=-13304.99247664 kJ mol^-1, Unit is Angstrom
 O     -0.0001610748      0.0000000000     -0.0598055462
 H      0.8337558756     -0.0000000000      0.4311108786
 H     -0.8311992924      0.0000000000      0.4334542609
3
# ORCA AIMD Position Step 933, t=466.50 fs, E_Pot=-13304.42389135 kJ mol^-1, Unit is Angstrom
 O     -0.0011730375      0.0000000000     -0.0611135836
 H      0.8448959250     -0.0000000000      0.4462165809
 H     -0.8262774465      0.0000000000      0.4391097594
3
# ORCA AIMD Position Step 934, t=467.00 fs, E_Pot=-13303.38948427 kJ mol^-1, Unit is Angstrom
 O     -0.0020766494      0.0000000000     -0.0624614480
 H      0.8524127302     -0.0000000000      0.4611041803
 H     -0.8194521008      0.0000000000      0.4456154945
3
# ORCA AIMD Position Step 935, t=467.50 fs, E_Pot=-13302.66756351 kJ mol^-1, Unit is Angstrom
 O     -0.0027818998      0.0000000000     -0.0637871812
 H      0.8552653333      0.0000000000      0.4748200109
 H     -0.8111109528      0.0000000000      0.4529417335
3
# ORCA AIMD Position Step 936, t=468.00 fs, E_Pot=-13302.81358253 kJ mol^-1, Unit is Angstrom
 O     -0.0032193499      0.0000000000     -0.0650291387
 H      0.8529470423      0.0000000000      0.4865048632
 H     -0.8018494443      0.0000000000      0.4609692606
3
# ORCA AIMD Position Step 937, t=468.50 fs, E_Pot=-13304.04389078 kJ mol^-1, Unit is Angstrom
 O     -0.0033791345      0.0000000000     -0.0662415399
 H      0.8451681442      0.0000000000      0.4964781811
 H     -0.7915344417      0.0000000000      0.4702392030
3
# ORCA AIMD Position Step 938, t=469.00 fs, E_Pot=-13306.16834345 kJ mol^-1, Unit is Angstrom
 O     -0.0032374039      0.0000000000     -0.0673598654
 H      0.8324321166      0.0000000000      0.5040843325
 H     -0.7810479652      0.0000000000      0.4803831403
3
# ORCA AIMD Position Step 939, t=469.50 fs, E_Pot=-13308.75604248 kJ mol^-1, Unit is Angstrom
 O     -0.0028015436      0.0000000000     -0.0684050433
 H      0.8150483939      0.0000000000      0.5094777021
 H     -0.7705822265      0.0000000000      0.4915788597
3
# ORCA AIMD Position Step 940, t=470.00 fs, E_Pot=-13311.00487377 kJ mol^-1, Unit is Angstrom
 O     -0.0021197649      0.0000000000     -0.0693582298
 H      0.7943852204      0.0000000000      0.5127486090
 H     -0.7607402613      0.0000000000      0.5034369512
3
# ORCA AIMD Position Step 941, t=470.50 fs, E_Pot=-13312.10133606 kJ mol^-1, Unit is Angstrom
 O     -0.0012517857      0.0000000000     -0.0702472872
 H      0.7715392403      0.0000000000      0.5144213938
 H     -0.7516708678      0.0000000000      0.5158753075
3
# ORCA AIMD Position Step 942, t=471.00 fs, E_Pot=-13311.46995328 kJ mol^-1, Unit is Angstrom
 O     -0.0003426570      0.0000000000     -0.0710510262
 H      0.7494720621      0.0000000000      0.5151749752
 H     -0.7440334022      0.0000000000      0.5278786900
3
# ORCA AIMD Position Step 943, t=471.50 fs, E_Pot=-13309.04140560 kJ mol^-1, Unit is Angstrom
 O      0.0005753193      0.0000000000     -0.0718764969
 H      0.7281036957      0.0000000000      0.5160381659
 H     -0.7372351769      0.0000000000      0.5401173899
3
# ORCA AIMD Position Step 944, t=472.00 fs, E_Pot=-13305.40016008 kJ mol^-1, Unit is Angstrom
 O      0.0013783961      0.0000000000     -0.0727633536
 H      0.7094642544      0.0000000000      0.5181088596
 H     -0.7313421907     -0.0000000000      0.5521229064
3
# ORCA AIMD Position Step 945, t=472.50 fs, E_Pot=-13302.08842288 kJ mol^-1, Unit is Angstrom
 O      0.0019182393      0.0000000000     -0.0737028323
 H      0.6961688089      0.0000000000      0.5222901981
 H     -0.7266151486     -0.0000000000      0.5628529964
3
# ORCA AIMD Position Step 946, t=473.00 fs, E_Pot=-13300.24463106 kJ mol^-1, Unit is Angstrom
 O      0.0021472015      0.0000000000     -0.0747500926
 H      0.6886858576      0.0000000000      0.5293894352
 H     -0.7227662907     -0.0000000000      0.5723758996
3
# ORCA AIMD Position Step 947, t=473.50 fs, E_Pot=-13300.19708786 kJ mol^-1, Unit is Angstrom
 O      0.0020377603      0.0000000000     -0.0759015058
 H      0.6873167409      0.0000000000      0.5396141083
 H     -0.7196601203     -0.0000000000      0.5804264851
3
# ORCA AIMD Position Step 948, t=474.00 fs, E_Pot=-13301.21535539 kJ mol^-1, Unit is Angstrom
 O      0.0016201607      0.0000000000     -0.0770466646
 H      0.6916166854      0.0000000000      0.5519050205
 H     -0.7173319153     -0.0000000000      0.5863115601
3
# ORCA AIMD Position Step 949, t=474.50 fs, E_Pot=-13302.17314782 kJ mol^-1, Unit is Angstrom
 O      0.0009798645      0.0000000000     -0.0780686749
 H      0.7001760239      0.0000000000      0.5647586790
 H     -0.7157284562     -0.0000000000      0.5896792729
3
# ORCA AIMD Position Step 950, t=475.00 fs, E_Pot=-13302.38399786 kJ mol^-1, Unit is Angstrom
 O      0.0001771896      0.0000000000     -0.0789228505
 H      0.7118831045      0.0000000000      0.5774239736
 H     -0.7146954623     -0.0000000000      0.5905714736
3
# ORCA AIMD Position Step 951, t=475.50 fs, E_Pot=-13301.69498230 kJ mol^-1, Unit is Angstrom
 O     -0.0006979576      0.0000000000     -0.0795226149
 H      0.7252883607      0.0000000000      0.5885899408
 H     -0.7142103609     -0.0000000000      0.5889249822
3
# ORCA AIMD Position Step 952, t=476.00 fs, E_Pot=-13300.59621934 kJ mol^-1, Unit is Angstrom
 O     -0.0015038397      0.0000000000     -0.0797701819
 H      0.7381936601      0.0000000000      0.5964746478
 H     -0.7143246812     -0.0000000000      0.5849696636
3
# ORCA AIMD Position Step 953, t=476.50 fs, E_Pot=-13299.61936232 kJ mol^-1, Unit is Angstrom
 O     -0.0022245844      0.0000000000     -0.0796472872
 H      0.7504471941      0.0000000000      0.6008501784
 H     -0.7151385379     -0.0000000000      0.5786435453
3
# ORCA AIMD Position Step 954, t=477.00 fs, E_Pot=-13299.23662309 kJ mol^-1, Unit is Angstrom
 O     -0.0028065573      0.0000000000     -0.0791208852
 H      0.7614153004      0.0000000000      0.6011015459
 H     -0.7168695557     -0.0000000000      0.5700371133
3
# ORCA AIMD Position Step 955, t=477.50 fs, E_Pot=-13299.81665784 kJ mol^-1, Unit is Angstrom
 O     -0.0031642606      0.0000000000     -0.0782107785
 H      0.7699225998      0.0000000000      0.5967962570
 H     -0.7196993803     -0.0000000000      0.5598971664
3
# ORCA AIMD Position Step 956, t=478.00 fs, E_Pot=-13301.43931016 kJ mol^-1, Unit is Angstrom
 O     -0.0032401606      0.0000000000     -0.0770108985
 H      0.7751019806      0.0000000000      0.5882801654
 H     -0.7236740745     -0.0000000000      0.5493687342
3
# ORCA AIMD Position Step 957, t=478.50 fs, E_Pot=-13303.99404722 kJ mol^-1, Unit is Angstrom
 O     -0.0030262920      0.0000000000     -0.0755437048
 H      0.7771016896      0.0000000000      0.5757199376
 H     -0.7290683103     -0.0000000000      0.5386416285
3
# ORCA AIMD Position Step 958, t=479.00 fs, E_Pot=-13307.03966849 kJ mol^-1, Unit is Angstrom
 O     -0.0025352285      0.0000000000     -0.0738860140
 H      0.7761549693      0.0000000000      0.5598355894
 H     -0.7359157624     -0.0000000000      0.5282150699
3
# ORCA AIMD Position Step 959, t=479.50 fs, E_Pot=-13309.99780421 kJ mol^-1, Unit is Angstrom
 O     -0.0017869044      0.0000000000     -0.0720553419
 H      0.7727544072      0.0000000000      0.5409423599
 H     -0.7443926186     -0.0000000000      0.5180518284
3
# ORCA AIMD Position Step 960, t=480.00 fs, E_Pot=-13312.05571955 kJ mol^-1, Unit is Angstrom
 O     -0.0008189735      0.0000000000     -0.0700703636
 H      0.7675950906      0.0000000000      0.5194680729
 H     -0.7545963241     -0.0000000000      0.5080204928
3
# ORCA AIMD Position Step 961, t=480.50 fs, E_Pot=-13312.32272156 kJ mol^-1, Unit is Angstrom
 O      0.0002695426      0.0000000000     -0.0680236618
 H      0.7618829735      0.0000000000      0.4967776762
 H     -0.7661611597     -0.0000000000      0.4982255892
3
# ORCA AIMD Position Step 962, t=481.00 fs, E_Pot=-13310.54537185 kJ mol^-1, Unit is Angstrom
 O      0.0013168600      0.0000000000     -0.0660687921
 H      0.7573436553      0.0000000000      0.4750596005
 H     -0.7782448886     -0.0000000000      0.4889159264
3
# ORCA AIMD Position Step 963, t=481.50 fs, E_Pot=-13307.45276427 kJ mol^-1, Unit is Angstrom
 O      0.0021926574      0.0000000000     -0.0642693852
 H      0.7556142592      0.0000000000      0.4555527800
 H     -0.7904161691     -0.0000000000      0.4798625174
3
# ORCA AIMD Position Step 964, t=482.00 fs, E_Pot=-13304.53018401 kJ mol^-1, Unit is Angstrom
 O      0.0027619092      0.0000000000     -0.0627006759
 H      0.7582220627     -0.0000000000      0.4395674562
 H     -0.8020591508     -0.0000000000      0.4709492501
3
# ORCA AIMD Position Step 965, t=482.50 fs, E_Pot=-13303.13688927 kJ mol^-1, Unit is Angstrom
 O      0.0029285434      0.0000000000     -0.0614133643
 H      0.7660706598     -0.0000000000      0.4279662144
 H     -0.8125525700     -0.0000000000      0.4621182518
3
# ORCA AIMD Position Step 966, t=483.00 fs, E_Pot=-13303.47107238 kJ mol^-1, Unit is Angstrom
 O      0.0026638904      0.0000000000     -0.0604147787
 H      0.7791152578     -0.0000000000      0.4208900692
 H     -0.8213965906     -0.0000000000      0.4533448216
3
# ORCA AIMD Position Step 967, t=483.50 fs, E_Pot=-13304.49818133 kJ mol^-1, Unit is Angstrom
 O      0.0020112101      0.0000000000     -0.0596811961
 H      0.7962613952     -0.0000000000      0.4178733130
 H     -0.8281833702     -0.0000000000      0.4447181385
3
# ORCA AIMD Position Step 968, t=484.00 fs, E_Pot=-13304.87938792 kJ mol^-1, Unit is Angstrom
 O      0.0010729228      0.0000000000     -0.0591689840
 H      0.8156257776     -0.0000000000      0.4180231255
 H     -0.8326552344     -0.0000000000      0.4364384836
3
# ORCA AIMD Position Step 969, t=484.50 fs, E_Pot=-13303.83118350 kJ mol^-1, Unit is Angstrom
 O     -0.0000652699      0.0000000000     -0.0588093159
 H      0.8359448160     -0.0000000000      0.4203409817
 H     -0.8349088501     -0.0000000000      0.4284119661
3
# ORCA AIMD Position Step 970, t=485.00 fs, E_Pot=-13301.67344262 kJ mol^-1, Unit is Angstrom
 O     -0.0011578284      0.0000000000     -0.0585934610
 H      0.8532627341     -0.0000000000      0.4236026066
 H     -0.8348856539     -0.0000000000      0.4217242872
3
# ORCA AIMD Position Step 971, t=485.50 fs, E_Pot=-13299.17228470 kJ mol^-1, Unit is Angstrom
 O     -0.0021319739      0.0000000000     -0.0584808253
 H      0.8668087042     -0.0000000000      0.4271343739
 H     -0.8329699643     -0.0000000000      0.4164047639
3
# ORCA AIMD Position Step 972, t=486.00 fs, E_Pot=-13297.29879702 kJ mol^-1, Unit is Angstrom
 O     -0.0028487994      0.0000000000     -0.0584603665
 H      0.8749697638     -0.0000000000      0.4302061851
 H     -0.8297535517      0.0000000000      0.4130082299
3
# ORCA AIMD Position Step 973, t=486.50 fs, E_Pot=-13296.38579238 kJ mol^-1, Unit is Angstrom
 O     -0.0033495339      0.0000000000     -0.0585282455
 H      0.8783579179     -0.0000000000      0.4329614181
 H     -0.8251940356      0.0000000000      0.4113303736
3
# ORCA AIMD Position Step 974, t=487.00 fs, E_Pot=-13296.85185577 kJ mol^-1, Unit is Angstrom
 O     -0.0035592681      0.0000000000     -0.0586995722
 H      0.8762268332     -0.0000000000      0.4351647745
 H     -0.8197340449      0.0000000000      0.4118463180
3
# ORCA AIMD Position Step 975, t=487.50 fs, E_Pot=-13298.82420383 kJ mol^-1, Unit is Angstrom
 O     -0.0034224215      0.0000000000     -0.0589964021
 H      0.8681724502     -0.0000000000      0.4367191093
 H     -0.8138516942      0.0000000000      0.4150032755
3
# ORCA AIMD Position Step 976, t=488.00 fs, E_Pot=-13301.73784090 kJ mol^-1, Unit is Angstrom
 O     -0.0029522472      0.0000000000     -0.0594013796
 H      0.8555317968     -0.0000000000      0.4375503677
 H     -0.8086736583      0.0000000000      0.4205998284
3
# ORCA AIMD Position Step 977, t=488.50 fs, E_Pot=-13304.93267978 kJ mol^-1, Unit is Angstrom
 O     -0.0021937434      0.0000000000     -0.0599334602
 H      0.8391338287     -0.0000000000      0.4380001312
 H     -0.8043146810      0.0000000000      0.4285952620
3
# ORCA AIMD Position Step 978, t=489.00 fs, E_Pot=-13307.62647131 kJ mol^-1, Unit is Angstrom
 O     -0.0011953448      0.0000000000     -0.0606331785
 H      0.8195423587     -0.0000000000      0.4385984350
 H     -0.8005698182      0.0000000000      0.4391029040
3
# ORCA AIMD Position Step 979, t=489.50 fs, E_Pot=-13308.94137565 kJ mol^-1, Unit is Angstrom
 O     -0.0001000422      0.0000000000     -0.0615025945
 H      0.7989217074     -0.0000000000      0.4400516165
 H     -0.7973338356      0.0000000000      0.4514491130
3
# ORCA AIMD Position Step 980, t=490.00 fs, E_Pot=-13308.72596672 kJ mol^-1, Unit is Angstrom
 O      0.0009431471      0.0000000000     -0.0625555362
 H      0.7793179183     -0.0000000000      0.4432181889
 H     -0.7942875711      0.0000000000      0.4649948561
3
# ORCA AIMD Position Step 981, t=490.50 fs, E_Pot=-13307.68652089 kJ mol^-1, Unit is Angstrom
 O      0.0017917588      0.0000000000     -0.0638064852
 H      0.7626137623     -0.0000000000      0.4489682363
 H     -0.7910526012      0.0000000000      0.4790999023
3
# ORCA AIMD Position Step 982, t=491.00 fs, E_Pot=-13307.00582050 kJ mol^-1, Unit is Angstrom
 O      0.0023275788      0.0000000000     -0.0652477424
 H      0.7503634902     -0.0000000000      0.4579081488
 H     -0.7873068763      0.0000000000      0.4930356576
3
# ORCA AIMD Position Step 983, t=491.50 fs, E_Pot=-13307.42406094 kJ mol^-1, Unit is Angstrom
 O      0.0025218481      0.0000000000     -0.0669784766
 H      0.7424327817     -0.0000000000      0.4710771115
 H     -0.7824596147      0.0000000000      0.5073369498
3
# ORCA AIMD Position Step 984, t=492.00 fs, E_Pot=-13308.76043237 kJ mol^-1, Unit is Angstrom
 O      0.0023494429      0.0000000000     -0.0688672378
 H      0.7392457794     -0.0000000000      0.4876163708
 H     -0.7765361936      0.0000000000      0.5207761522
3
# ORCA AIMD Position Step 985, t=492.50 fs, E_Pot=-13310.06513766 kJ mol^-1, Unit is Angstrom
 O      0.0018694115      0.0000000000     -0.0707745001
 H      0.7399864677     -0.0000000000      0.5061199399
 H     -0.7696578120      0.0000000000      0.5325446969
3
# ORCA AIMD Position Step 986, t=493.00 fs, E_Pot=-13310.43849485 kJ mol^-1, Unit is Angstrom
 O      0.0011402367      0.0000000000     -0.0727107058
 H      0.7433878161     -0.0000000000      0.5263920653
 H     -0.7614856805      0.0000000000      0.5430040736
3
# ORCA AIMD Position Step 987, t=493.50 fs, E_Pot=-13309.37999711 kJ mol^-1, Unit is Angstrom
 O      0.0002724477      0.0000000000     -0.0745404920
 H      0.7479932421     -0.0000000000      0.5466950553
 H     -0.7523175381      0.0000000000      0.5517434937
3
# ORCA AIMD Position Step 988, t=494.00 fs, E_Pot=-13307.14733792 kJ mol^-1, Unit is Angstrom
 O     -0.0006151762      0.0000000000     -0.0761350937
 H      0.7524096815     -0.0000000000      0.5652575761
 H     -0.7426455906      0.0000000000      0.5584905295
3
# ORCA AIMD Position Step 989, t=494.50 fs, E_Pot=-13304.17379546 kJ mol^-1, Unit is Angstrom
 O     -0.0014851603      0.0000000000     -0.0775144645
 H      0.7558672887     -0.0000000000      0.5820013910
 H     -0.7322947892      0.0000000000      0.5636401204
3
# ORCA AIMD Position Step 990, t=495.00 fs, E_Pot=-13301.38251493 kJ mol^-1, Unit is Angstrom
 O     -0.0021901389      0.0000000000     -0.0785176665
 H      0.7573672994     -0.0000000000      0.5946606254
 H     -0.7226053621      0.0000000000      0.5669037320
3
# ORCA AIMD Position Step 991, t=495.50 fs, E_Pot=-13299.01026382 kJ mol^-1, Unit is Angstrom
 O     -0.0027541447      0.0000000000     -0.0792390655
 H      0.7566359874     -0.0000000000      0.6041250033
 H     -0.7129221378      0.0000000000      0.5688894162
3
# ORCA AIMD Position Step 992, t=496.00 fs, E_Pot=-13297.73393710 kJ mol^-1, Unit is Angstrom
 O     -0.0030573788      0.0000000000     -0.0795795846
 H      0.7535645882     -0.0000000000      0.6087863853
 H     -0.7050377987      0.0000000000      0.5696327626
3
# ORCA AIMD Position Step 993, t=496.50 fs, E_Pot=-13297.64225166 kJ mol^-1, Unit is Angstrom
 O     -0.0030915024      0.0000000000     -0.0795769196
 H      0.7480597435     -0.0000000000      0.6088598046
 H     -0.6989913444      0.0000000000      0.5695170433
3
# ORCA AIMD Position Step 994, t=497.00 fs, E_Pot=-13298.67287739 kJ mol^-1, Unit is Angstrom
 O     -0.0028416972      0.0000000000     -0.0792534875
 H      0.7405941775     -0.0000000000      0.6044100391
 H     -0.6954906916      0.0000000000      0.5688332865
3
# ORCA AIMD Position Step 995, t=497.50 fs, E_Pot=-13300.47590501 kJ mol^-1, Unit is Angstrom
 O     -0.0023268657      0.0000000000     -0.0786534955
 H      0.7318434253      0.0000000000      0.5959129296
 H     -0.6949113568      0.0000000000      0.5678073101
3
# ORCA AIMD Position Step 996, t=498.00 fs, E_Pot=-13302.49533447 kJ mol^-1, Unit is Angstrom
 O     -0.0015922579      0.0000000000     -0.0778283201
 H      0.7226343788      0.0000000000      0.5840912826
 H     -0.6973620236      0.0000000000      0.5665317521
3
# ORCA AIMD Position Step 997, t=498.50 fs, E_Pot=-13304.11058144 kJ mol^-1, Unit is Angstrom
 O     -0.0007065116      0.0000000000     -0.0768315371
 H      0.7139509117      0.0000000000      0.5698530118
 H     -0.7027371424      0.0000000000      0.5649490606
3
# ORCA AIMD Position Step 998, t=499.00 fs, E_Pot=-13304.84817905 kJ mol^-1, Unit is Angstrom
 O      0.0003179671      0.0000000000     -0.0756289077
 H      0.7062756342      0.0000000000      0.5530017364
 H     -0.7113224150     -0.0000000000      0.5627121726
3
# ORCA AIMD Position Step 999, t=499.50 fs, E_Pot=-13304.50632896 kJ mol^-1, Unit is Angstrom
 O      0.0012810524      0.0000000000     -0.0743787989
 H      0.7017059329      0.0000000000      0.5361897009
 H     -0.7220388272     -0.0000000000      0.5596824525
3
# ORCA AIMD Position Step 1000, t=500.00 fs, E_Pot=-13303.79720909 kJ mol^-1, Unit is Angstrom
 O      0.0020705178      0.0000000000     -0.0731243584
 H      0.7015964676      0.0000000000      0.5204964274
 H     -0.7344597758     -0.0000000000      0.5554652157
