23
Geometria fornecida por Henrique; Al(H2O)6 + NH3; carga total +3; singleto
Al        -1.69843        0.30039       -0.52660
O         -1.75434        2.28860       -0.16768
H         -1.06074        2.96658       -0.39426
H         -2.57402        2.86004       -0.19067
O          0.18914        0.01137       -1.09162
H          0.74757        0.53633       -1.72122
H          0.81910       -0.68284       -0.76495
O         -4.16028        0.33340        0.21207
H         -4.88863       -0.23860       -0.13918
H         -4.41422        0.36961        1.17124
O         -1.89953       -1.63320       -0.98875
H         -1.18917       -2.30830       -0.84601
H         -2.72113       -2.18200       -0.88390
O         -2.27717        0.41996       -2.39043
H         -1.95369       -0.26864       -3.02303
H         -2.55489        1.18412       -2.95722
O         -1.29833        0.19812        1.32935
H         -0.88999        0.97238        1.79308
H         -1.06866       -0.60048        1.86891
N         -7.75307        0.21769        1.57284
H         -7.36248       -0.21900        2.40779
H         -8.23546        1.07792        1.83306
H         -8.41348       -0.42234        1.13168
