6
# ORCA AIMD Position Step 0, t=0.00 fs, E_Pot=-401187.90956746 kJ mol^-1, Unit is Angstrom
 O     -0.0796352642     -0.0196416508     -0.0000000026
 H      0.8882335806      0.0410373495      0.0000000290
 H     -0.3710616857      0.8970396247     -0.0000000244
 O      2.8829157386      0.1199906909     -0.0000000001
 H      3.2897738558      0.5457869818      0.7619714577
 H      3.2897738193      0.5457870135     -0.7619714597
6
# ORCA AIMD Position Step 1, t=0.50 fs, E_Pot=-401187.27214001 kJ mol^-1, Unit is Angstrom
 O     -0.0794226654     -0.0193265556      0.0016402594
 H      0.8907803205      0.0438738895     -0.0090850931
 H     -0.3786296400      0.8954971662     -0.0110602187
 O      2.8842391739      0.1194919562     -0.0006016192
 H      3.2659684610      0.5400656678      0.7577931912
 H      3.2942204569      0.5531289766     -0.7541332406
6
# ORCA AIMD Position Step 2, t=1.00 fs, E_Pot=-401185.69046848 kJ mol^-1, Unit is Angstrom
 O     -0.0791973118     -0.0190095633      0.0032802970
 H      0.8930324035      0.0467528602     -0.0181655962
 H     -0.3861017534      0.8938785644     -0.0221213291
 O      2.8855086572      0.1189352167     -0.0012930644
 H      3.2429463298      0.5351992515      0.7552032607
 H      3.2987365325      0.5605402973     -0.7464577776
6
# ORCA AIMD Position Step 3, t=1.50 fs, E_Pot=-401184.06671673 kJ mol^-1, Unit is Angstrom
 O     -0.0789480673     -0.0186877452      0.0049196122
 H      0.8947198272      0.0497122289     -0.0272338870
 H     -0.3933805433      0.8920961749     -0.0331833173
 O      2.8866790675      0.1182664614     -0.0021602983
 H      3.2213573412      0.5319851225      0.7556906115
 H      3.3033840926      0.5680840422     -0.7390693425
6
# ORCA AIMD Position Step 4, t=2.00 fs, E_Pot=-401183.39484409 kJ mol^-1, Unit is Angstrom
 O     -0.0786669151     -0.0183577010      0.0065575038
 H      0.8956291275      0.0527832679     -0.0362806924
 H     -0.4003754357      0.8900614655     -0.0442448688
 O      2.8877223017      0.1174462902     -0.0032660354
 H      3.2015907857      0.5309968955      0.7603248344
 H      3.3082155471      0.5758152459     -0.7320415789
6
# ORCA AIMD Position Step 5, t=2.50 fs, E_Pot=-401184.07206492 kJ mol^-1, Unit is Angstrom
 O     -0.0783498815     -0.0180162894      0.0081932131
 H      0.8956242841      0.0559906060     -0.0452970019
 H     -0.4070090349      0.8876966401     -0.0553035845
 O      2.8886324236      0.1164593959     -0.0046321750
 H      3.1836981659      0.5324375464      0.7694683250
 H      3.3132691691      0.5837772002     -0.7253886605
6
# ORCA AIMD Position Step 6, t=3.00 fs, E_Pot=-401185.60481229 kJ mol^-1, Unit is Angstrom
 O     -0.0779975350     -0.0176614088      0.0098261314
 H      0.8946606539      0.0593527502     -0.0542763912
 H     -0.4132232661      0.8849465905     -0.0663567613
 O      2.8894247726      0.1153182963     -0.0062325427
 H      3.1674122287      0.5360844636      0.7826590257
 H      3.3185643332      0.5919970755     -0.7190634385
6
# ORCA AIMD Position Step 7, t=3.50 fs, E_Pot=-401186.99543251 kJ mol^-1, Unit is Angstrom
 O     -0.0776148703     -0.0172923856      0.0114560339
 H      0.8927871237      0.0628821087     -0.0632173237
 H     -0.4189833951      0.8817850302     -0.0774026111
 O      2.8901294789      0.1140595096     -0.0079999132
 H      3.1522546394      0.5413552528      0.7987262315
 H      3.3240968024      0.6004808351     -0.7129619666
6
# ORCA AIMD Position Step 8, t=4.00 fs, E_Pot=-401187.42871509 kJ mol^-1, Unit is Angstrom
 O     -0.0772107543     -0.0169102362      0.0130832342
 H      0.8901397835      0.0665848815     -0.0721245791
 H     -0.4242808049      0.8782186858     -0.0884411689
 O      2.8907826205      0.1127343323     -0.0098434963
 H      3.1376796303      0.5474590456      0.8160783993
 H      3.3298357449      0.6092083755     -0.7069338881
6
# ORCA AIMD Position Step 9, t=4.50 fs, E_Pot=-401186.68883740 kJ mol^-1, Unit is Angstrom
 O     -0.0767970032     -0.0165176926      0.0147087195
 H      0.8869279481      0.0704609954     -0.0810102222
 H     -0.4291338271      0.8742876972     -0.0994754309
 O      2.8914188008      0.1113986402     -0.0116683404
 H      3.1231919350      0.5535606501      0.8330266371
 H      3.3357237608      0.6181313206     -0.7007979934
6
# ORCA AIMD Position Step 10, t=5.00 fs, E_Pot=-401185.13349819 kJ mol^-1, Unit is Angstrom
 O     -0.0763870727     -0.0161189329      0.0163341674
 H      0.8834117609      0.0745036211     -0.0898933276
 H     -0.4335862629      0.8700617033     -0.1105119781
 O      2.8920667917      0.1101049977     -0.0133901009
 H      3.1084123393      0.5589045751      0.8480378740
 H      3.3416806246      0.6271743640     -0.6943609029
6
# ORCA AIMD Position Step 11, t=5.50 fs, E_Pot=-401183.41490189 kJ mol^-1, Unit is Angstrom
 O     -0.0759944755     -0.0157190535      0.0179618307
 H      0.8798733158      0.0786983554     -0.0987982994
 H     -0.4377036671      0.8656321894     -0.1215609746
 O      2.8927479661      0.1088979338     -0.0149432323
 H      3.0930953812      0.5628847564      0.8598849426
 H      3.3476105044      0.6362406156     -0.6874369742
6
# ORCA AIMD Position Step 12, t=6.00 fs, E_Pot=-401182.17968769 kJ mol^-1, Unit is Angstrom
 O     -0.0756310573     -0.0153233167      0.0195942713
 H      0.8765835503      0.0830221101     -0.1077516742
 H     -0.4415675242      0.8611015808     -0.1326353609
 O      2.8934763567      0.1078116694     -0.0162839031
 H      3.0771186192      0.5650719613      0.8677121484
 H      3.3534116743      0.6452203342     -0.6798673972
6
# ORCA AIMD Position Step 13, t=6.50 fs, E_Pot=-401181.85845455 kJ mol^-1, Unit is Angstrom
 O     -0.0753053719     -0.0149362756      0.0212339559
 H      0.8737693677      0.0874416779     -0.1167775634
 H     -0.4452680660      0.8565707565     -0.1437492053
 O      2.8942593708      0.1068691823     -0.0173900129
 H      3.0604604875      0.5652181820      0.8710519681
 H      3.3589872255      0.6540014239     -0.6715363952
6
# ORCA AIMD Position Step 14, t=7.00 fs, E_Pot=-401182.55490023 kJ mol^-1, Unit is Angstrom
 O     -0.0750213610     -0.0145608272      0.0228827575
 H      0.8715844564      0.0919125315     -0.1258924231
 H     -0.4488958304      0.8521251996     -0.1549152380
 O      2.8950986110      0.1060816635     -0.0182603690
 H      3.0431765401      0.5632540778      0.8698248122
 H      3.3642555805      0.6624806212     -0.6623838510
6
# ORCA AIMD Position Step 15, t=7.50 fs, E_Pot=-401184.01781730 kJ mol^-1, Unit is Angstrom
 O     -0.0747776072     -0.0141973872      0.0245414207
 H      0.8700894721      0.0963780538     -0.1350998558
 H     -0.4525335554      0.8478227030     -0.1661417319
 O      2.8959906354      0.1054479090     -0.0189141970
 H      3.0253779838      0.5592882184      0.8643391554
 H      3.3691597482      0.6705738937     -0.6524130373
6
# ORCA AIMD Position Step 16, t=8.00 fs, E_Pot=-401185.69497126 kJ mol^-1, Unit is Angstrom
 O     -0.0745674040     -0.0138434066      0.0262091811
 H      0.8692467007      0.1007702054     -0.1443872798
 H     -0.4562496099      0.8436851016     -0.1774299257
 O      2.8969278080      0.1049536362     -0.0193912280
 H      3.0072111347      0.5536093381      0.8552951397
 H      3.3736742471      0.6782249440     -0.6416926894
6
# ORCA AIMD Position Step 17, t=8.50 fs, E_Pot=-401186.88745882 kJ mol^-1, Unit is Angstrom
 O     -0.0743794892     -0.0134931015      0.0278834539
 H      0.8689264628      0.1050109132     -0.1537240582
 H     -0.4600927355      0.8396926875     -0.1887710046
 O      2.8978993184      0.1045710129     -0.0197517699
 H      2.9888365371      0.5466871592      0.8437827922
 H      3.3778097833      0.6854117862     -0.6303540520
6
# ORCA AIMD Position Step 18, t=9.00 fs, E_Pot=-401187.01595330 kJ mol^-1, Unit is Angstrom
 O     -0.0741994394     -0.0131376703      0.0295598131
 H      0.8689271931      0.1090150573     -0.1630627284
 H     -0.4640899710      0.8357848027     -0.2001445538
 O      2.8988926468      0.1042592551     -0.0200752398
 H      2.9704044106      0.5391592650      0.8312494064
 H      3.3816145277      0.6921502345     -0.6185815364
6
# ORCA AIMD Position Step 19, t=9.50 fs, E_Pot=-401185.94273018 kJ mol^-1, Unit is Angstrom
 O     -0.0740114340     -0.0127659254      0.0312322284
 H      0.8690043700      0.1126946406     -0.1723428526
 H     -0.4682475564      0.8318659048     -0.2115184125
 O      2.8998954559      0.1039674046     -0.0204548911
 H      2.9520267957      0.5317863467      0.8194006667
 H      3.3851719163      0.6984943817     -0.6065975961
6
# ORCA AIMD Position Step 20, t=10.00 fs, E_Pot=-401184.17028756 kJ mol^-1, Unit is Angstrom
 O     -0.0738000697     -0.0123652250      0.0328935246
 H      0.8689029631      0.1159635216     -0.1814968223
 H     -0.4725544604      0.8278158503     -0.2228500357
 O      2.9008976453      0.1036404373     -0.0209865438
 H      2.9337510812      0.5253582860      0.8100012185
 H      3.3885943866      0.7045333230     -0.5946422829
6
# ORCA AIMD Position Step 21, t=10.50 fs, E_Pot=-401182.67176290 kJ mol^-1, Unit is Angstrom
 O     -0.0735520286     -0.0119226414      0.0345360406
 H      0.8683897227      0.1187424602     -0.1904570237
 H     -0.4769880521      0.8235036861     -0.2340896025
 O      2.9018928676      0.1032288118     -0.0217510563
 H      2.9155465044      0.5205498113      0.8045716303
 H      3.3920126905      0.7103836549     -0.5829486196
6
# ORCA AIMD Position Step 22, t=11.00 fs, E_Pot=-401182.30814398 kJ mol^-1, Unit is Angstrom
 O     -0.0732573379     -0.0114261192      0.0361523495
 H      0.8672800681      0.1209634453     -0.1991629811
 H     -0.4815207672      0.8188019449     -0.2451840790
 O      2.9028785880      0.1026993678     -0.0227946113
 H      2.8973177182      0.5177597762      0.8040498691
 H      3.3955611303      0.7161769820     -0.5717171873
6
# ORCA AIMD Position Step 23, t=11.50 fs, E_Pot=-401183.21998254 kJ mol^-1, Unit is Angstrom
 O     -0.0729101699     -0.0108655195      0.0377359730
 H      0.8654576960      0.1225730600     -0.2075678070
 H     -0.4861268441      0.8136000318     -0.2560818841
 O      2.9038544078      0.1020434381     -0.0241148239
 H      2.8789488592      0.5169993770      0.8085476955
 H      3.3993599438      0.7220427587     -0.5610932469
6
# ORCA AIMD Position Step 24, t=12.00 fs, E_Pot=-401184.73768237 kJ mol^-1, Unit is Angstrom
 O     -0.0725092658     -0.0102335405      0.0392820889
 H      0.8628877866      0.1235350892     -0.2156438334
 H     -0.4907886654      0.8078163692     -0.2667382124
 O      2.9048195719      0.1012785193     -0.0256599659
 H      2.8603617329      0.5178861090      0.8173206771
 H      3.4034965352      0.7280876853     -0.5511493320
6
# ORCA AIMD Position Step 25, t=12.50 fs, E_Pot=-401185.88944219 kJ mol^-1, Unit is Angstrom
 O     -0.0720577986     -0.0095262127      0.0407879924
 H      0.8596190652      0.1238311981     -0.2233857891
 H     -0.4955011267      0.8014055346     -0.2771190355
 O      2.9057710583      0.1004428076     -0.0273422939
 H      2.8415613827      0.5197502850      0.8289724524
 H      3.4080103543      0.7343759458     -0.5418781142
6
# ORCA AIMD Position Step 26, t=13.00 fs, E_Pot=-401186.02308098 kJ mol^-1, Unit is Angstrom
 O     -0.0715629311     -0.0087431480      0.0422534418
 H      0.8557793342      0.1234606948     -0.2308125355
 H     -0.5002743208      0.7943623651     -0.2872047702
 O      2.9067033535      0.0995859837     -0.0290586083
 H      2.8226492747      0.5217966608      0.8417840559
 H      3.4128834276      0.7409139517     -0.5331955014
6
# ORCA AIMD Position Step 27, t=13.50 fs, E_Pot=-401185.08281740 kJ mol^-1, Unit is Angstrom
 O     -0.0710350071     -0.0078874402      0.0436807534
 H      0.8515628276      0.1224390149     -0.2379664342
 H     -0.5051339646      0.7867217062     -0.2969924758
 O      2.9076096423      0.0987601695     -0.0307095441
 H      2.8038054187      0.5232545157      0.8540333365
 H      3.4180395744      0.7476439632     -0.5249538099
6
# ORCA AIMD Position Step 28, t=14.00 fs, E_Pot=-401183.49879912 kJ mol^-1, Unit is Angstrom
 O     -0.0704864263     -0.0069652204      0.0450746244
 H      0.8472100515      0.1207950452     -0.2449102398
 H     -0.5101193257      0.7785538070     -0.3064963474
 O      2.9084834498      0.0980134035     -0.0322124183
 H      2.7852543348      0.5234769884      0.8642198056
 H      3.4233526134      0.7544485528     -0.5169625001
6
# ORCA AIMD Position Step 29, t=14.50 fs, E_Pot=-401181.90743600 kJ mol^-1, Unit is Angstrom
 O     -0.0699302658     -0.0059849178      0.0464416733
 H      0.8429812635      0.1185675552     -0.2517214542
 H     -0.5152787898      0.7699559088     -0.3157463581
 O      2.9093199191      0.0973858131     -0.0335071662
 H      2.7672293180      0.5219875134      0.8711838792
 H      3.4286620310      0.7611651600     -0.5090129117
6
# ORCA AIMD Position Step 30, t=15.00 fs, E_Pot=-401180.89202271 kJ mol^-1, Unit is Angstrom
 O     -0.0693787836     -0.0049563152      0.0477897145
 H      0.8391261471      0.1158011567     -0.2584843771
 H     -0.5206635213      0.7610410892     -0.3247850381
 O      2.9101164717      0.0969076457     -0.0345574664
 H      2.7499424784      0.5184902540      0.8741491291
 H      3.4337926765      0.7676071175     -0.5009023105
6
# ORCA AIMD Position Step 31, t=15.50 fs, E_Pot=-401180.81100053 kJ mol^-1, Unit is Angstrom
 O     -0.0688419045     -0.0038894325      0.0491267982
 H      0.8358516037      0.1125420722     -0.2652803528
 H     -0.5263193548      0.7519245666     -0.3336623105
 O      2.9108730069      0.0965981234     -0.0353496720
 H      2.7335605177      0.5128641903      0.8727272421
 H      3.4385759121      0.7735879447     -0.4924554942
6
# ORCA AIMD Position Step 32, t=16.00 fs, E_Pot=-401181.70872934 kJ mol^-1, Unit is Angstrom
 O     -0.0683260281     -0.0027935627      0.0504602513
 H      0.8332949539      0.1088350533     -0.2721783523
 H     -0.5322790118      0.7427113753     -0.3424299563
 O      2.9115919536      0.0964645107     -0.0358913964
 H      2.7181841604      0.5051540281      0.8669125198
 H      3.4428694337      0.7789453500     -0.4835414643
6
# ORCA AIMD Position Step 33, t=16.50 fs, E_Pot=-401183.29574853 kJ mol^-1, Unit is Angstrom
 O     -0.0678332213     -0.0016763152      0.0517956706
 H      0.8315030279      0.1047208292     -0.2792260789
 H     -0.5385540000      0.7334836140     -0.3511346832
 O      2.9122784902      0.0965012462     -0.0362106821
 H      2.7038283976      0.4955634205      0.8570794508
 H      3.4465735440      0.7835618963     -0.4740840374
6
# ORCA AIMD Position Step 34, t=17.00 fs, E_Pot=-401185.00657565 kJ mol^-1, Unit is Angstrom
 O     -0.0673611062     -0.0005430383      0.0531362170
 H      0.8304248144      0.1002353949     -0.2864446545
 H     -0.5451290250      0.7242919801     -0.3598123175
 O      2.9129410894      0.0966892864     -0.0363557665
 H      2.6904025901      0.4844502234      0.8439832075
 H      3.4496423793      0.7873801856     -0.4640659855
6
# ORCA AIMD Position Step 35, t=17.50 fs, E_Pot=-401186.15998598 kJ mol^-1, Unit is Angstrom
 O     -0.0669033688      0.0006034524      0.0544822090
 H      0.8299164219      0.0954105115     -0.2938269345
 H     -0.5519588674      0.7151509725     -0.3684829436
 O      2.9135922229      0.0969958582     -0.0363946908
 H      2.6776919697      0.4723190617      0.8287525526
 H      3.4520912096      0.7904141958     -0.4535282348
6
# ORCA AIMD Position Step 36, t=18.00 fs, E_Pot=-401186.23107464 kJ mol^-1, Unit is Angstrom
 O     -0.0664508330      0.0017627773      0.0558311425
 H      0.8297587046      0.0902751814     -0.3013402826
 H     -0.5589688706      0.7060390206     -0.3771482592
 O      2.9142488435      0.0973755765     -0.0364130022
 H      2.6653485820      0.4597988052      0.8128464450
 H      3.4539977586      0.7927540040     -0.4425631293
6
# ORCA AIMD Position Step 37, t=18.50 fs, E_Pot=-401185.16284104 kJ mol^-1, Unit is Angstrom
 O     -0.0659929218      0.0029365210      0.0571781872
 H      0.8296853863      0.0848576016     -0.3089336008
 H     -0.5660597270      0.6969041653     -0.3857921232
 O      2.9149317732      0.0977737694     -0.0365072658
 H      2.6529052909      0.4475909225      0.7979387579
 H      3.4554977729      0.7945645059     -0.4313024298
6
# ORCA AIMD Position Step 38, t=19.00 fs, E_Pot=-401183.52033332 kJ mol^-1, Unit is Angstrom
 O     -0.0655191572      0.0041275896      0.0585169485
 H      0.8294147830      0.0791866980     -0.3165464035
 H     -0.5731151303      0.6876728705     -0.3943831796
 O      2.9156629894      0.0981326806     -0.0367725782
 H      2.6398294530      0.4363793583      0.7857029967
 H      3.4567741312      0.7960769527     -0.4199006166
6
# ORCA AIMD Position Step 39, t=19.50 fs, E_Pot=-401182.25934862 kJ mol^-1, Unit is Angstrom
 O     -0.0650205118      0.0053394504      0.0598404447
 H      0.8286818058      0.0732929511     -0.3241189957
 H     -0.5800119652      0.6782614267     -0.4028797650
 O      2.9164603110      0.0984001165     -0.0372846738
 H      2.6256247424      0.4267100804      0.7775075174
 H      3.4580390355      0.7975719895     -0.4085145295
6
# ORCA AIMD Position Step 40, t=20.00 fs, E_Pot=-401182.12915028 kJ mol^-1, Unit is Angstrom
 O     -0.0644904515      0.0065753710      0.0611421559
 H      0.8272663022      0.0672083173     -0.3316022833
 H     -0.5866318066      0.6685882257     -0.4112363338
 O      2.9173305810      0.0985383781     -0.0380814803
 H      2.6099634462      0.4188755319      0.7741002845
 H      3.4595096007      0.7993533183     -0.3972812996
6
# ORCA AIMD Position Step 41, t=20.50 fs, E_Pot=-401183.14096048 kJ mol^-1, Unit is Angstrom
 O     -0.0639255421      0.0078378274      0.0624169215
 H      0.8250136712      0.0609651094     -0.3389653837
 H     -0.5928716644      0.6585843452     -0.4194097002
 O      2.9182643096      0.0985302685     -0.0391521457
 H      2.5928008254      0.4128546243      0.7754132407
 H      3.4613782935      0.8017122942     -0.3862972718
6
# ORCA AIMD Position Step 42, t=21.00 fs, E_Pot=-401184.58722892 kJ mol^-1, Unit is Angstrom
 O     -0.0633257071      0.0091280039      0.0636617810
 H      0.8218493480      0.0545943514     -0.3462016828
 H     -0.5986544249      0.6482031185     -0.4273659526
 O      2.9192349996      0.0983798202     -0.0404397054
 H      2.5744160886      0.4083411072      0.7805880715
 H      3.4637827028      0.8048880023     -0.3756018128
6
# ORCA AIMD Position Step 43, t=21.50 fs, E_Pot=-401185.57682202 kJ mol^-1, Unit is Angstrom
 O     -0.0626940716      0.0104456037      0.0648764211
 H      0.8177830828      0.0481234279     -0.3533311313
 H     -0.6039358068      0.6374254014     -0.4350849864
 O      2.9202040770      0.0981084091     -0.0418563137
 H      2.5553609896      0.4048448066      0.7882092863
 H      3.4667788969      0.8090278116     -0.3651689011
6
# ORCA AIMD Position Step 44, t=22.00 fs, E_Pot=-401185.58531933 kJ mol^-1, Unit is Angstrom
 O     -0.0620365125      0.0117888117      0.0660633884
 H      0.8129059666      0.0415739329     -0.3604000723
 H     -0.6087089845      0.6262621913     -0.4425639180
 O      2.9211291638      0.0977486802     -0.0433036631
 H      2.5363447086      0.4018164330      0.7966302140
 H      3.4703256762      0.8141590862     -0.3549091647
6
# ORCA AIMD Position Step 45, t=22.50 fs, E_Pot=-401184.64337320 kJ mol^-1, Unit is Angstrom
 O     -0.0613609257      0.0131544851      0.0672279289
 H      0.8073792917      0.0349596492     -0.3674777774
 H     -0.6130055925      0.6147534873     -0.4498180714
 O      2.9219721739      0.0973388597     -0.0446905456
 H      2.5181067815      0.3987484052      0.8042642042
 H      3.4742836810      0.8201787814     -0.3446822808
6
# ORCA AIMD Position Step 46, t=23.00 fs, E_Pot=-401183.18980736 kJ mol^-1, Unit is Angstrom
 O     -0.0606762272      0.0145385602      0.0683774250
 H      0.8014153226      0.0282848316     -0.3746495167
 H     -0.6168928501      0.6029633584     -0.4568792633
 O      2.9227047589      0.0969184271     -0.0459436341
 H      2.5013154669      0.3952326165      0.8097773154
 H      3.4784310655      0.8268645609     -0.3343182380
6
# ORCA AIMD Position Step 47, t=23.50 fs, E_Pot=-401181.80786166 kJ mol^-1, Unit is Angstrom
 O     -0.0599912501      0.0159365223      0.0695205092
 H      0.7952532991      0.0215437225     -0.3820069041
 H     -0.6204675169      0.5909728677     -0.4637918319
 O      2.9233105415      0.0965249894     -0.0470117239
 H      2.4865050665      0.3909809731      0.8121801668
 H      3.4824911873      0.8339039680     -0.3236414459
6
# ORCA AIMD Position Step 48, t=24.00 fs, E_Pot=-401181.00105322 kJ mol^-1, Unit is Angstrom
 O     -0.0593135541      0.0173439761      0.0706658355
 H      0.7891308550      0.0147209573     -0.3896354294
 H     -0.6238464587      0.5788704987     -0.4706061023
 O      2.9237849944      0.0961917752     -0.0478659087
 H      2.4740427837      0.3858241172      0.8108553825
 H      3.4861679216      0.8409356022     -0.3124948726
6
# ORCA AIMD Position Step 49, t=24.50 fs, E_Pot=-401181.05019056 kJ mol^-1, Unit is Angstrom
 O     -0.0586483414      0.0187572066      0.0718206354
 H      0.7832547929      0.0077932329     -0.3976005049
 H     -0.6271547322      0.5667415212     -0.4773698697
 O      2.9241342172      0.0959454331     -0.0484981024
 H      2.4641123009      0.3797018666      0.8055542162
 H      3.4891815957      0.8475936736     -0.3007596808
6
# ORCA AIMD Position Step 50, t=25.00 fs, E_Pot=-401181.93940490 kJ mol^-1, Unit is Angstrom
 O     -0.0579976614      0.0201736015      0.0729893251
 H      0.7777760785      0.0007323345     -0.4059345675
 H     -0.6305131738      0.5546582574     -0.4841195525
 O      2.9243736312      0.0958039806     -0.0489195843
 H      2.4567022596      0.3726538656      0.7963873021
 H      3.4913011996      0.8535499204     -0.2883687220
6
# ORCA AIMD Position Step 51, t=25.50 fs, E_Pot=-401183.34487012 kJ mol^-1, Unit is Angstrom
 O     -0.0573600382      0.0215919700      0.0741722405
 H      0.7727715545     -0.0064912499     -0.4146263676
 H     -0.6340258491      0.5426714342     -0.4908709874
 O      2.9245271415      0.0957750891     -0.0491601685
 H      2.4515944820      0.3648126709      0.7838182177
 H      3.4923692864      0.8585477122     -0.2753131050
6
# ORCA AIMD Position Step 52, t=26.00 fs, E_Pot=-401184.70296823 kJ mol^-1, Unit is Angstrom
 O     -0.0567306258      0.0230126365      0.0753648191
 H      0.7682364263     -0.0139043217     -0.4236154363
 H     -0.6377698263      0.5308047449     -0.4976120360
 O      2.9246267826      0.0958547363     -0.0492678832
 H      2.4483516600      0.3563989891      0.7686592720
 H      3.4923196587      0.8624281400     -0.2616430270
6
# ORCA AIMD Position Step 53, t=26.50 fs, E_Pot=-401185.38676790 kJ mol^-1, Unit is Angstrom
 O     -0.0561019015      0.0244373144      0.0765574390
 H      0.7640895733     -0.0215275012     -0.4327931915
 H     -0.6417891060      0.5190534821     -0.5042987495
 O      2.9247123250      0.0960266845     -0.0493080600
 H      2.4463139689      0.3477129580      0.7520517327
 H      3.4911866250      0.8651469267     -0.2474626244
6
# ORCA AIMD Position Step 54, t=27.00 fs, E_Pot=-401184.98526436 kJ mol^-1, Unit is Angstrom
 O     -0.0554647226      0.0258688048      0.0777358587
 H      0.7601888801     -0.0293727304     -0.4420102633
 H     -0.6460927163      0.5073868949     -0.5108548475
 O      2.9248298171      0.0962631734     -0.0493602240
 H      2.4446202918      0.3391149468      0.7354067039
 H      3.4891064504      0.8667825462     -0.2329203835
6
# ORCA AIMD Position Step 55, t=27.50 fs, E_Pot=-401183.58593496 kJ mol^-1, Unit is Angstrom
 O     -0.0548095781      0.0273105463      0.0788823144
 H      0.7563548867     -0.0374422127     -0.4510896148
 H     -0.6506579620      0.4957543665     -0.5171757952
 O      2.9250276882      0.0965274657     -0.0495107397
 H      2.4422769615      0.3309866613      0.7202740395
 H      3.4863099339      0.8675346332     -0.2181950019
6
# ORCA AIMD Position Step 56, t=28.00 fs, E_Pot=-401181.84851127 kJ mol^-1, Unit is Angstrom
 O     -0.0541278024      0.0287661018      0.0799770752
 H      0.7523980422     -0.0457289064     -0.4598431905
 H     -0.6554378919      0.4840941031     -0.5231366681
 O      2.9253494285      0.0967785844     -0.0498400827
 H      2.4382909787      0.3236692730      0.7081221739
 H      3.4831048624      0.8677106040     -0.2034774179
6
# ORCA AIMD Position Step 57, t=28.50 fs, E_Pot=-401180.68652862 kJ mol^-1, Unit is Angstrom
 O     -0.0534125710      0.0302386657      0.0810002289
 H      0.7481452344     -0.0542183926     -0.4680896384
 H     -0.6603716385      0.4723428659     -0.5286026820
 O      2.9258234903      0.0969777824     -0.0504062930
 H      2.4318587092      0.3173885561      0.7000549899
 H      3.4798471968      0.8676978006     -0.1889503881
6
# ORCA AIMD Position Step 58, t=29.00 fs, E_Pot=-401180.67548250 kJ mol^-1, Unit is Angstrom
 O     -0.0526595764      0.0317306530      0.0819334695
 H      0.7434622349     -0.0628917237     -0.4756708854
 H     -0.6653960302      0.4604453089     -0.5334409980
 O      2.9264536624      0.0970951902     -0.0512298862
 H      2.4225583023      0.3121933260      0.6965520164
 H      3.4769013382      0.8679195614     -0.1747681780
6
# ORCA AIMD Position Step 59, t=29.50 fs, E_Pot=-401181.65358015 kJ mol^-1, Unit is Angstrom
 O     -0.0518673583      0.0332434149      0.0827617109
 H      0.7382701440     -0.0717288058     -0.4824660023
 H     -0.6704570531      0.4483618338     -0.5375325339
 O      2.9272147624      0.0971145552     -0.0522872312
 H      2.4104654788      0.3079380735      0.6973468462
 H      3.4745929751      0.8687774159     -0.1610400176
6
# ORCA AIMD Position Step 60, t=30.00 fs, E_Pot=-401182.87779493 kJ mol^-1, Unit is Angstrom
 O     -0.0510373110      0.0347771189      0.0834743374
 H      0.7325545740     -0.0807118438     -0.4884009914
 H     -0.6755193968      0.4360738442     -0.5407820988
 O      2.9280567920      0.0970348980     -0.0535161620
 H      2.3961360852      0.3043218012      0.7015072728
 H      3.4731610372      0.8705860513     -0.1478210963
6
# ORCA AIMD Position Step 61, t=30.50 fs, E_Pot=-401183.56092276 kJ mol^-1, Unit is Angstrom
 O     -0.0501734169      0.0363307743      0.0840660344
 H      0.7263678970     -0.0898284323     -0.4934541911
 H     -0.6805734821      0.4235863306     -0.5431262517
 O      2.9289161530      0.0968692826     -0.0548311399
 H      2.3804665048      0.3009650451      0.7076770963
 H      3.4727198349      0.8735159050     -0.1351136360
6
# ORCA AIMD Position Step 62, t=31.00 fs, E_Pot=-401183.31149560 kJ mol^-1, Unit is Angstrom
 O     -0.0492817748      0.0379023799      0.0845371381
 H      0.7198249705     -0.0990737295     -0.4976571104
 H     -0.6856391461      0.4109276419     -0.5445381072
 O      2.9297289856      0.0966420879     -0.0561408176
 H      2.3645018839      0.2974898004      0.7143653921
 H      3.4732395842      0.8775566145     -0.1228772889
6
# ORCA AIMD Position Step 63, t=31.50 fs, E_Pot=-401182.22694699 kJ mol^-1, Unit is Angstrom
 O     -0.0483699227      0.0394892011      0.0848933910
 H      0.7130916736     -0.1084515526     -0.5010899473
 H     -0.6907651799      0.3981461403     -0.5450281381
 O      2.9304417955      0.0963856893     -0.0573619706
 H      2.3492622540      0.2935764497      0.7201849431
 H      3.4745518698      0.8825127899     -0.1110462573
6
# ORCA AIMD Position Step 64, t=32.00 fs, E_Pot=-401180.73212336 kJ mol^-1, Unit is Angstrom
 O     -0.0474460450      0.0410880719      0.0851452344
 H      0.7063682660     -0.1179738896     -0.5038729065
 H     -0.6960254011      0.3853049345     -0.5446418658
 O      2.9310171547      0.0961368935     -0.0584275143
 H      2.3356233946      0.2889909908      0.7239986144
 H      3.4763784330      0.8880333695     -0.0995481727
6
# ORCA AIMD Position Step 65, t=32.50 fs, E_Pot=-401179.35470911 kJ mol^-1, Unit is Angstrom
 O     -0.0465181169      0.0426956796      0.0853065899
 H      0.6998678419     -0.1276585068     -0.5061531759
 H     -0.7015107707      0.3724750215     -0.5434538307
 O      2.9314349496      0.0959332614     -0.0592895342
 H      2.3242534263      0.2835896990      0.7249835912
 H      3.4783748478      0.8936652574     -0.0883199514
6
# ORCA AIMD Position Step 66, t=33.00 fs, E_Pot=-401178.54345346 kJ mol^-1, Unit is Angstrom
 O     -0.0455930268      0.0443088066      0.0853932228
 H      0.6937912495     -0.1375248585     -0.5080883072
 H     -0.7073182983      0.3597273922     -0.5415585123
 O      2.9316909693      0.0958094548     -0.0599195554
 H      2.3155855820      0.2773117614      0.7226466967
 H      3.4801802097      0.8989186471     -0.0773185727
6
# ORCA AIMD Position Step 67, t=33.50 fs, E_Pot=-401178.54633592 kJ mol^-1, Unit is Angstrom
 O     -0.0446758150      0.0459244724      0.0854208582
 H      0.6883016123     -0.1475884375     -0.5098278220
 H     -0.7135376593      0.3471251627     -0.5390590082
 O      2.9317946200      0.0957939371     -0.0603078535
 H      2.3098087086      0.2701683264      0.7168182581
 H      3.4814629271      0.9033303007     -0.0665256764
6
# ORCA AIMD Position Step 68, t=34.00 fs, E_Pot=-401179.33886939 kJ mol^-1, Unit is Angstrom
 O     -0.0437691663      0.0475399399      0.0854034554
 H      0.6835032932     -0.1578545215     -0.5114968010
 H     -0.7202382226      0.3347172447     -0.5360561385
 O      2.9317669847      0.0959062418     -0.0604629356
 H      2.3068611794      0.2622326240      0.7076433176
 H      3.4819576184      0.9065167649     -0.0559469423
6
# ORCA AIMD Position Step 69, t=34.50 fs, E_Pot=-401180.60775852 kJ mol^-1, Unit is Angstrom
 O     -0.0428732161      0.0491526628      0.0853515785
 H      0.6794258679     -0.1683121602     -0.5131815526
 H     -0.7274559299      0.3225331550     -0.5326368055
 O      2.9316396918      0.0961550131     -0.0604114875
 H      2.3064227437      0.2536317744      0.6955762597
 H      3.4814910380      0.9082136624     -0.0456076605
6
# ORCA AIMD Position Step 70, t=35.00 fs, E_Pot=-401181.81641403 kJ mol^-1, Unit is Angstrom
 O     -0.0419857640      0.0507601623      0.0852714482
 H      0.6760189055     -0.1789300263     -0.5149225280
 H     -0.7351844113      0.3105808335     -0.5288658275
 O      2.9314543682      0.0965369292     -0.0601983891
 H      2.3079078935      0.2445389582      0.6813740130
 H      3.4799971330      0.9083006141     -0.0355458898
6
# ORCA AIMD Position Step 71, t=35.50 fs, E_Pot=-401182.37983385 kJ mol^-1, Unit is Angstrom
 O     -0.0411028372      0.0523598977      0.0851646101
 H      0.6731564860     -0.1896548405     -0.5167138589
 H     -0.7433702593      0.2988470890     -0.5247807774
 O      2.9312618504      0.0970364149     -0.0598859442
 H      2.3104710839      0.2351633990      0.6660749970
 H      3.4775240219      0.9068158448     -0.0258039882
6
# ORCA AIMD Position Step 72, t=36.00 fs, E_Pot=-401181.93593558 kJ mol^-1, Unit is Angstrom
 O     -0.0402195084      0.0539491837      0.0850283849
 H      0.6706519904     -0.2004132445     -0.5185106379
 H     -0.7519144790      0.2873007614     -0.5203915186
 O      2.9311197483      0.0976264987     -0.0595506740
 H      2.3130470779      0.2257339842      0.6509385439
 H      3.4742319750      0.9039589812     -0.0164192616
6
# ORCA AIMD Position Step 73, t=36.50 fs, E_Pot=-401180.60333875 kJ mol^-1, Unit is Angstrom
 O     -0.0393308008      0.0555251806      0.0848569549
 H      0.6682802380     -0.2111169225     -0.5202420245
 H     -0.7606799765      0.2758979338     -0.5156840850
 O      2.9310867977      0.0982709451     -0.0592760701
 H      2.3144513035      0.2164742326      0.6373198462
 H      3.4703824028      0.9000823111     -0.0074141891
6
# ORCA AIMD Position Step 74, t=37.00 fs, E_Pot=-401179.01948432 kJ mol^-1, Unit is Angstrom
 O     -0.0384325117      0.0570849761      0.0846428559
 H      0.6658032226     -0.2216702283     -0.5218275962
 H     -0.7695040466      0.2645881923     -0.5106278702
 O      2.9312131747      0.0989277547     -0.0591405503
 H      2.3135552400      0.2075701504      0.6264694877
 H      3.4663160285      0.8956674301      0.0012127379
6
# ORCA AIMD Position Step 75, t=37.50 fs, E_Pot=-401178.00999514 kJ mol^-1, Unit is Angstrom
 O     -0.0375218272      0.0586257488      0.0843786056
 H      0.6629956520     -0.2319791629     -0.5231941459
 H     -0.7782140919      0.2533209229     -0.5051846676
 O      2.9315281667      0.0995537021     -0.0592023796
 H      2.3095163893      0.1991399511      0.6192873156
 H      3.4624185289      0.8912836013      0.0094937992
6
# ORCA AIMD Position Step 76, t=38.00 fs, E_Pot=-401178.04469165 kJ mol^-1, Unit is Angstrom
 O     -0.0365976695      0.0601449923      0.0840582308
 H      0.6596673121     -0.2419604995     -0.5242905707
 H     -0.7866445183      0.2420508215     -0.4993180668
 O      2.9320296378      0.1001091329     -0.0594864937
 H      2.3019924645      0.1912199286      0.6161112996
 H      3.4590736044      0.8875257814      0.0174941016
6
# ORCA AIMD Position Step 77, t=38.50 fs, E_Pot=-401178.92243384 kJ mol^-1, Unit is Angstrom
 O     -0.0356607787      0.0616407659      0.0836785098
 H      0.6556803347     -0.2515499564     -0.5250991607
 H     -0.7946527995      0.2307421002     -0.4930019166
 O      2.9326809588      0.1005622272     -0.0599791291
 H      2.2912459882      0.1837759647      0.6166371891
 H      3.4566072038      0.8849354460      0.0253067130
6
# ORCA AIMD Position Step 78, t=39.00 fs, E_Pot=-401179.96352239 kJ mol^-1, Unit is Angstrom
 O     -0.0347135304      0.0631119734      0.0832398885
 H      0.6509608844     -0.2607089800     -0.5256428667
 H     -0.8021339130      0.2193710230     -0.4862274551
 O      2.9334182106      0.1008922629     -0.0606329343
 H      2.2780849822      0.1767359254      0.6200118660
 H      3.4552323491      0.8839162112      0.0330403007
6
# ORCA AIMD Position Step 79, t=39.50 fs, E_Pot=-401180.49409371 kJ mol^-1, Unit is Angstrom
 O     -0.0337595489      0.0645585609      0.0827468123
 H      0.6455029385     -0.2694284416     -0.5259866479
 H     -0.8090294793      0.2079267434     -0.4790068589
 O      2.9341648863      0.1010918345     -0.0613796012
 H      2.2636716237      0.1700263180      0.6250517007
 H      3.4550063469      0.8846616835      0.0408008826
6
# ORCA AIMD Position Step 80, t=40.00 fs, E_Pot=-401180.20181958 kJ mol^-1, Unit is Angstrom
 O     -0.0328031984      0.0659816450      0.0822076561
 H      0.6393652763     -0.2777300260     -0.5262347186
 H     -0.8153334602      0.1964106185     -0.4713745506
 O      2.9348477481      0.1011676289     -0.0621442361
 H      2.2492884715      0.1635981803      0.6304893183
 H      3.4558135267      0.8871172953      0.0486728320
6
# ORCA AIMD Position Step 81, t=40.50 fs, E_Pot=-401179.19190414 kJ mol^-1, Unit is Angstrom
 O     -0.0318490672      0.0673835025      0.0816341123
 H      0.6326618208     -0.2856642508     -0.5265226987
 H     -0.8210923031      0.1848341209     -0.4633851191
 O      2.9354084528      0.1011393882     -0.0628567434
 H      2.2361413827      0.1574365354      0.6351688341
 H      3.4573794021      0.8909875836      0.0567040985
6
# ORCA AIMD Position Step 82, t=41.00 fs, E_Pot=-401177.84477082 kJ mol^-1, Unit is Angstrom
 O     -0.0309013728      0.0687674122      0.0810401319
 H      0.6255477600     -0.2933045078     -0.5270053111
 H     -0.8263993735      0.1732159842     -0.4551085055
 O      2.9358091136      0.1010369831     -0.0634586833
 H      2.2252276810      0.1515557683      0.6381612623
 H      3.4593131092      0.8957866730      0.0648993443
6
# ORCA AIMD Position Step 83, t=41.50 fs, E_Pot=-401176.62894257 kJ mol^-1, Unit is Angstrom
 O     -0.0299634253      0.0701373007      0.0804404326
 H      0.6181998509     -0.3007377219     -0.5278404379
 H     -0.8313837973      0.1615790098     -0.4466224464
 O      2.9360326691      0.1008961368     -0.0639064694
 H      2.2172715405      0.1459885985      0.6388138305
 H      3.4611661803      0.9009166435      0.0732215566
6
# ORCA AIMD Position Step 84, t=42.00 fs, E_Pot=-401175.94597264 kJ mol^-1, Unit is Angstrom
 O     -0.0290371868      0.0714972247      0.0798488552
 H      0.6107942925     -0.3080530837     -0.5291716013
 H     -0.8361960042      0.1499469951     -0.4380039067
 O      2.9360804632      0.1007536612     -0.0641725651
 H      2.2127010504      0.1407746042      0.6367606864
 H      3.4624945657      0.9057546442      0.0816003329
6
# ORCA AIMD Position Step 85, t=42.50 fs, E_Pot=-401176.01398094 kJ mol^-1, Unit is Angstrom
 O     -0.0281229938      0.0728507069      0.0792766111
 H      0.6034840833     -0.3153290618     -0.5311098614
 H     -0.8409892401      0.1383421333     -0.4293191911
 O      2.9359692248      0.1006431858     -0.0642458568
 H      2.2116428472      0.1359507912      0.6319168207
 H      3.4629116996      0.9097302650      0.0899437016
6
# ORCA AIMD Position Step 86, t=43.00 fs, E_Pot=-401176.79031592 kJ mol^-1, Unit is Angstrom
 O     -0.0272195495      0.0742000346      0.0787306676
 H      0.5963792649     -0.3226206222     -0.5337178974
 H     -0.8458997144      0.1267832671     -0.4206142124
 O      2.9357286752      0.1005918458     -0.0641319942
 H      2.2139202209      0.1315444004      0.6244708233
 H      3.4621281391      0.9123853908      0.0981507554
6
# ORCA AIMD Position Step 87, t=43.50 fs, E_Pot=-401177.95352737 kJ mol^-1, Unit is Angstrom
 O     -0.0263242587      0.0755456717      0.0782126560
 H      0.5895355026     -0.3299493838     -0.5369998428
 H     -0.8510294575      0.1152853914     -0.4119073328
 O      2.9354000587      0.1006179998     -0.0638538649
 H      2.2190501035      0.1275676546      0.6148803362
 H      3.4599774922      0.9134156731      0.1061237260
6
# ORCA AIMD Position Step 88, t=44.00 fs, E_Pot=-401178.97965254 kJ mol^-1, Unit is Angstrom
 O     -0.0254338680      0.0768858704      0.0777183669
 H      0.5829512885     -0.3372981404     -0.5408978780
 H     -0.8564328506      0.1038603330     -0.4031848892
 O      2.9350350979      0.1007298791     -0.0634517672
 H      2.2262451063      0.1240139311      0.6038641141
 H      3.4564304612      0.9126957946      0.1137788028
6
# ORCA AIMD Position Step 89, t=44.50 fs, E_Pot=-401179.33533875 kJ mol^-1, Unit is Angstrom
 O     -0.0245452461      0.0782165895      0.0772380187
 H      0.5765734431     -0.3446113029     -0.5452973252
 H     -0.8621096902      0.0925183910     -0.3944007049
 O      2.9346942110      0.1009249917     -0.0629823215
 H      2.2344375198      0.1208551108      0.5923753948
 H      3.4515990696      0.9102916829      0.1210558304
6
# ORCA AIMD Position Step 90, t=45.00 fs, E_Pot=-401178.75208611 kJ mol^-1, Unit is Angstrom
 O     -0.0236561331      0.0795317279      0.0767572697
 H      0.5703101527     -0.3518009950     -0.5500393494
 H     -0.8680062152      0.0812705865     -0.3854798027
 O      2.9344424314      0.1011901529     -0.0625147794
 H      2.2423487634      0.1180404285      0.5815350068
 H      3.4457318715      0.9064613087      0.1279269593
6
# ORCA AIMD Position Step 91, t=45.50 fs, E_Pot=-401177.44561220 kJ mol^-1, Unit is Angstrom
 O     -0.0227657509      0.0808236457      0.0762587933
 H      0.5640488650     -0.3587577030     -0.5549391139
 H     -0.8740234840      0.0701307708     -0.3763255213
 O      2.9343415395      0.1015022349     -0.0621233646
 H      2.2486299132      0.1154977843      0.5725031939
 H      3.4391984683      0.9016417536      0.1344035412
6
# ORCA AIMD Position Step 92, t=46.00 fs, E_Pot=-401176.07776627 kJ mol^-1, Unit is Angstrom
 O     -0.0218751822      0.0820838822      0.0757241440
 H      0.5576760924     -0.3653635046     -0.5598064558
 H     -0.8800316317      0.0591171908     -0.3668288173
 O      2.9344383972      0.1018298602     -0.0618754719
 H      2.2520764402      0.1131385197      0.5662891139
 H      3.4324604059      0.8964178189      0.1405396646
6
# ORCA AIMD Position Step 93, t=46.50 fs, E_Pot=-401175.38100723 kJ mol^-1, Unit is Angstrom
 O     -0.0209874419      0.0833039755      0.0751356624
 H      0.5510969974     -0.3715057319     -0.5644662262
 H     -0.8858876919      0.0482531552     -0.3568784662
 O      2.9347522514      0.1021363284     -0.0618179396
 H      2.2518742150      0.1108664434      0.5635359133
 H      3.4260260501      0.8914665375      0.1464295250
6
# ORCA AIMD Position Step 94, t=47.00 fs, E_Pot=-401175.67582320 kJ mol^-1, Unit is Angstrom
 O     -0.0201072622      0.0844762820      0.0744781687
 H      0.5442513849     -0.3770893544     -0.5687757681
 H     -0.8914540616      0.0375665038     -0.3463706532
 O      2.9352663422      0.1023839919     -0.0619660413
 H      2.2477931334      0.1085909783      0.5643578333
 H      3.4203892209      0.8874744781      0.1521957644
6
# ORCA AIMD Position Step 95, t=47.50 fs, E_Pot=-401176.68393230 kJ mol^-1, Unit is Angstrom
 O     -0.0192405898      0.0855947317      0.0737403501
 H      0.5371228210     -0.3820473074     -0.5726387828
 H     -0.8966161878      0.0270879931     -0.3352173466
 O      2.9359290167      0.1025398123     -0.0623000249
 H      2.2402400898      0.1062413165      0.5683074308
 H      3.4159591220      0.8850353581      0.1579675446
6
# ORCA AIMD Position Step 96, t=48.00 fs, E_Pot=-401177.77734622 kJ mol^-1, Unit is Angstrom
 O     -0.0183939379      0.0866554207      0.0729156732
 H      0.5297405490     -0.3863476269     -0.5760139192
 H     -0.9012964555      0.0168489550     -0.3233523852
 O      2.9366650876      0.1025812306     -0.0627705190
 H      2.2301459328      0.1037770995      0.5744907939
 H      3.4129948063      0.8845462602      0.1638513411
6
# ORCA AIMD Position Step 97, t=48.50 fs, E_Pot=-401178.39369160 kJ mol^-1, Unit is Angstrom
 O     -0.0175737266      0.0876570251      0.0720027998
 H      0.5221776209     -0.3899970383     -0.5789178988
 H     -0.9054636340      0.0068783096     -0.3107348605
 O      2.9373926458      0.1025009522     -0.0633096587
 H      2.2187437972      0.1011916205      0.5817735124
 H      3.4115608137      0.8861284892      0.1699014635
6
# ORCA AIMD Position Step 98, t=49.00 fs, E_Pot=-401178.29182741 kJ mol^-1, Unit is Angstrom
 O     -0.0167856965      0.0886009552      0.0710054902
 H      0.5145455706     -0.3930403333     -0.5814229812
 H     -0.9091363792     -0.0028003472     -0.2973498334
 O      2.9380385896      0.1023089708     -0.0638432203
 H      2.2073305141      0.0985073261      0.5889928555
 H      3.4115188253      0.8895997857      0.1761001999
6
# ORCA AIMD Position Step 99, t=49.50 fs, E_Pot=-401177.57138463 kJ mol^-1, Unit is Angstrom
 O     -0.0160344121      0.0894912356      0.0699320123
 H      0.5069846905     -0.3955556162     -0.5836490424
 H     -0.9123808665     -0.0121713984     -0.2832066245
 O      2.9385483600      0.1020311189     -0.0643004044
 H      2.1970816049      0.0957662283      0.5951162384
 H      3.4125576100      0.8945067380      0.1823543741
6
# ORCA AIMD Position Step 100, t=50.00 fs, E_Pot=-401176.56270941 kJ mol^-1, Unit is Angstrom
 O     -0.0153228960      0.0903340819      0.0687940986
 H      0.4996497864     -0.3976456137     -0.5857506330
 H     -0.9153023263     -0.0212292228     -0.2683349602
 O      2.9388892120      0.1017046345     -0.0646203546
 H      2.1889408365      0.0930190452      0.5993310897
 H      3.4142515301      0.9002060367      0.1885086988
6
# ORCA AIMD Position Step 101, t=50.50 fs, E_Pot=-401175.68632532 kJ mol^-1, Unit is Angstrom
 O     -0.0146523959      0.0911372009      0.0676055492
 H      0.4926928990     -0.3994256392     -0.5878998211
 H     -0.9180312836     -0.0299792330     -0.2527797352
 O      2.9390490029      0.1013721856     -0.0647560149
 H      2.1835693399      0.0903154431      0.6010811179
 H      3.4161304734      0.9059691865      0.1943705212
6
# ORCA AIMD Position Step 102, t=51.00 fs, E_Pot=-401175.31680848 kJ mol^-1, Unit is Angstrom
 O     -0.0140223271      0.0919088788      0.0663806208
 H      0.4862449137     -0.4010093468     -0.5902663589
 H     -0.9207058362     -0.0384376864     -0.2365951868
 O      2.9390330727      0.1010759413     -0.0646763140
 H      2.1813297561      0.0876962953      0.6000725657
 H      3.4177449722      0.9110844017      0.1997381413
6
# ORCA AIMD Position Step 103, t=51.50 fs, E_Pot=-401175.66211889 kJ mol^-1, Unit is Angstrom
 O     -0.0134304402      0.0926569477      0.0651323698
 H      0.4803981785     -0.4024938547     -0.5929971581
 H     -0.9234515164     -0.0466301938     -0.2198391176
 O      2.9388611348      0.1008527619     -0.0643674741
 H      2.1822848343      0.0851879592      0.5962694213
 H      3.4187168684      0.9149386933      0.2044263716
6
# ORCA AIMD Position Step 104, t=52.00 fs, E_Pot=-401176.67757021 kJ mol^-1, Unit is Angstrom
 O     -0.0128731776      0.0933878436      0.0638712766
 H      0.4751934258     -0.4039471976     -0.5961988116
 H     -0.9263625379     -0.0545893459     -0.2025685290
 O      2.9385651002      0.1007308373     -0.0638339484
 H      2.1861977955      0.0827982222      0.5898883252
 H      3.4187734650      0.9170753199      0.2082865008
6
# ORCA AIMD Position Step 105, t=52.50 fs, E_Pot=-401178.04697106 kJ mol^-1, Unit is Angstrom
 O     -0.0123462593      0.0941058278      0.0626042099
 H      0.4706122261     -0.4053992144     -0.5999244647
 H     -0.9294846545     -0.0623514811     -0.1848362773
 O      2.9381878099      0.1007276484     -0.0630990405
 H      2.1925322827      0.0805132827      0.5813942487
 H      3.4177673942      0.9172291629      0.2112204153
6
# ORCA AIMD Position Step 106, t=53.00 fs, E_Pot=-401179.26579072 kJ mol^-1, Unit is Angstrom
 O     -0.0118453406      0.0948125850      0.0613340487
 H      0.4665771021     -0.4068386215     -0.6041687751
 H     -0.9328046006     -0.0699532834     -0.1666901113
 O      2.9377819629      0.1008489222     -0.0622048282
 H      2.2004604052      0.0782961408      0.5714899489
 H      3.4156853619      0.9153449857      0.2131899304
6
# ORCA AIMD Position Step 107, t=53.50 fs, E_Pot=-401179.83784350 kJ mol^-1, Unit is Angstrom
 O     -0.0113666345      0.0955072208      0.0600599323
 H      0.4629575198     -0.4082162053     -0.6088711720
 H     -0.9362466614     -0.0774286727     -0.1481735167
 O      2.9374080057      0.1010881932     -0.0612106110
 H      2.2088956027      0.0760869785      0.5610853530
 H      3.4126492309      0.9115841322      0.2142228955
6
# ORCA AIMD Position Step 108, t=54.00 fs, E_Pot=-401179.53526752 kJ mol^-1, Unit is Angstrom
 O     -0.0109073805      0.0961866997      0.0587781196
 H      0.4595821897     -0.4094538412     -0.6139271954
 H     -0.9396781464     -0.0848067571     -0.1293281982
 O      2.9371294531      0.1014268495     -0.0601886493
 H      2.2165741530      0.0738069554      0.5512270490
 H      3.4089093978      0.9063200089      0.2144162651
6
# ORCA AIMD Position Step 109, t=54.50 fs, E_Pot=-401178.58290639 kJ mol^-1, Unit is Angstrom
 O     -0.0104661322      0.0968466422      0.0574832489
 H      0.4562572120     -0.4104578013     -0.6192056303
 H     -0.9429227634     -0.0921110812     -0.1101970321
 O      2.9370044568      0.1018347567     -0.0592161231
 H      2.2222059003      0.0713678030      0.5429715603
 H      3.4048276869      0.9001185098      0.2139352831
6
# ORCA AIMD Position Step 110, t=55.00 fs, E_Pot=-401177.59184570 kJ mol^-1, Unit is Angstrom
 O     -0.0100427695      0.0974822787      0.0561697257
 H      0.4527853536     -0.4111333677     -0.6245679696
 H     -0.9457793421     -0.0993601552     -0.0908267217
 O      2.9370741478      0.1022717936     -0.0583635110
 H      2.2246895768      0.0686882509      0.5372085671
 H      3.4008466871      0.8936972042      0.2130058979
6
# ORCA AIMD Position Step 111, t=55.50 fs, E_Pot=-401177.20393016 kJ mol^-1, Unit is Angstrom
 O     -0.0096382486      0.0980894540      0.0548330545
 H      0.4489837914     -0.4113991128     -0.6298879973
 H     -0.9480435214     -0.1065691635     -0.0712694565
 O      2.9373508656      0.1026908668     -0.0576817054
 H      2.2233475814      0.0657157713      0.5344739410
 H      3.3974417875      0.8878557966      0.2118973277
6
# ORCA AIMD Position Step 112, t=56.00 fs, E_Pot=-401177.68120292 kJ mol^-1, Unit is Angstrom
 O     -0.0092541670      0.0986655397      0.0534709309
 H      0.4446987349     -0.4111989208     -0.6350688511
 H     -0.9495293955     -0.1137524585     -0.0515831905
 O      2.9378116141      0.1030428910     -0.0571921648
 H      2.2180949280      0.0624479105      0.5348228134
 H      3.3950562074      0.8833757763      0.2108927016
6
# ORCA AIMD Position Step 113, t=56.50 fs, E_Pot=-401178.77466969 kJ mol^-1, Unit is Angstrom
 O     -0.0088922326      0.0992101370      0.0520839702
 H      0.4398157712     -0.4105103404     -0.6400555170
 H     -0.9500883710     -0.1209263442     -0.0318305424
 O      2.9384011671      0.1032836187     -0.0568840251
 H      2.2094642921      0.0589448985      0.5378228328
 H      3.3940267528      0.8808993978      0.2102497722
6
# ORCA AIMD Position Step 114, t=57.00 fs, E_Pot=-401179.94535196 kJ mol^-1, Unit is Angstrom
 O     -0.0085536876      0.0997256031      0.0506760772
 H      0.4342663644     -0.4093498900     -0.6448432419
 H     -0.9496248311     -0.1281120596     -0.0120760108
 O      2.9390445813      0.1033813015     -0.0567187594
 H      2.1984761457      0.0553274906      0.5426707018
 H      3.3945150851      0.8808101562      0.2101581068
6
# ORCA AIMD Position Step 115, t=57.50 fs, E_Pot=-401180.70009866 kJ mol^-1, Unit is Angstrom
 O     -0.0082388642      0.1002170544      0.0492543230
 H      0.4280277349     -0.4077717582     -0.6494772780
 H     -0.9481034115     -0.1353371132      0.0076163616
 O      2.9396640133      0.1033224632     -0.0566400241
 H      2.1864123135      0.0517612634      0.5483782183
 H      3.3964676025      0.8831568615      0.2107086833
6
# ORCA AIMD Position Step 116, t=58.00 fs, E_Pot=-401180.79899063 kJ mol^-1, Unit is Angstrom
 O     -0.0079467708      0.1006922835      0.0478284598
 H      0.4211197144     -0.4058646415     -0.6540498153
 H     -0.9455521202     -0.1426370124      0.0271879368
 O      2.9401932419      0.1031144339     -0.0565842295
 H      2.1745851724      0.0484322638      0.5539532297
 H      3.3996154328      0.8876376414      0.2118803938
6
# ORCA AIMD Position Step 117, t=58.50 fs, E_Pot=-401180.29367548 kJ mol^-1, Unit is Angstrom
 O     -0.0076748537      0.1011612432      0.0464101083
 H      0.4135966848     -0.4037435134     -0.6586898755
 H     -0.9420579142     -0.1500551971      0.0465886719
 O      2.9405859598      0.1027831550     -0.0564895729
 H      2.1641620487      0.0455229501      0.5585301240
 H      3.4035182762      0.8936587392      0.2135525427
6
# ORCA AIMD Position Step 118, t=59.00 fs, E_Pot=-401179.46414124 kJ mol^-1, Unit is Angstrom
 O     -0.0074189750      0.1016352369      0.0450116441
 H      0.4055361266     -0.4015380369     -0.6635482623
 H     -0.9377558607     -0.1576417233      0.0657798624
 O      2.9408177357      0.1023675539     -0.0563024628
 H      2.1560620350      0.0431929862      0.5614414223
 H      3.4076367293      0.9004429431      0.2155350808
6
# ORCA AIMD Position Step 119, t=59.50 fs, E_Pot=-401178.70681684 kJ mol^-1, Unit is Angstrom
 O     -0.0071736274      0.1021258486      0.0436448972
 H      0.3970249213     -0.3993784041     -0.6687784490
 H     -0.9328126838     -0.1654504584      0.0847355973
 O      2.9408839166      0.1019124865     -0.0559816068
 H      2.1509100638      0.0415665161      0.5622452811
 H      3.4114121405      0.9071543565      0.2176060796
6
# ORCA AIMD Position Step 120, t=60.00 fs, E_Pot=-401178.39808479 kJ mol^-1, Unit is Angstrom
 O     -0.0069323770      0.1026437151      0.0423198071
 H      0.3881451434     -0.3973800937     -0.6745153093
 H     -0.9274062213     -0.1735348555      0.1034425708
 O      2.9407960922      0.1014621675     -0.0555004017
 H      2.1490239991      0.0407248975      0.5607290252
 H      3.4143363393      0.9130099461      0.2195463839
