61
# ORCA AIMD Velocity Step 0, t=0.00 fs, E_Pot=-266377.21362912 kJ mol^-1, Unit is Angstrom fs^-1
Zn      0.0003656627     -0.0020802629      0.0004899146
 O     -0.0004486378      0.0010470654     -0.0033944548
 H     -0.0141941250     -0.0083821302     -0.0280196731
 H      0.0080460382      0.0244668890      0.0166133688
 O     -0.0092023567      0.0024226314     -0.0007311753
 H      0.0064894172      0.0093469432      0.0122414828
 H     -0.0078769609     -0.0098745584      0.0398643393
 O      0.0039823496      0.0000299898     -0.0002344780
 H      0.0089213486     -0.0030748643      0.0274484785
 H      0.0006804249      0.0280045066     -0.0004994537
 O     -0.0044507047     -0.0044471364     -0.0035517396
 H     -0.0143799290      0.0175164127      0.0016972853
 H      0.0203024036      0.0034632711     -0.0226198504
 O     -0.0015294462     -0.0016000325      0.0021823193
 H      0.0284463787      0.0102133153      0.0235615103
 H     -0.0046972296      0.0040625395      0.0211910872
 O      0.0036634361      0.0016674878     -0.0014563054
 H     -0.0076329805     -0.0212378001      0.0187953534
 H      0.0170399136     -0.0030090699     -0.0146672612
 O      0.0010864158      0.0071076984     -0.0067440280
 H     -0.0059025063     -0.0123680284     -0.0265517721
 H      0.0088001940      0.0365896764      0.0033393459
 O      0.0003336812     -0.0010413119     -0.0007551729
 H     -0.0025613399     -0.0080358025      0.0065918728
 H      0.0223973334      0.0013986245      0.0041102559
 O      0.0069293063      0.0018121802      0.0028783517
 H     -0.0093515497     -0.0164083845     -0.0245013719
 H     -0.0211642062      0.0106154459     -0.0160824811
 O      0.0032014053      0.0096232859     -0.0016824416
 H      0.0031016782      0.0110431440      0.0225309049
 H     -0.0010816918     -0.0131686096     -0.0211125926
 O      0.0023467059      0.0033336027      0.0042242002
 H     -0.0152244749     -0.0046429983      0.0275198480
 H      0.0049833045      0.0039815067     -0.0031965494
 O     -0.0043263617      0.0002595686     -0.0014307547
 H      0.0015549169      0.0056590700     -0.0035136702
 H     -0.0038907505     -0.0154637720     -0.0032347047
 O      0.0018974418     -0.0062025549     -0.0029594377
 H     -0.0264384990     -0.0020311433      0.0373814246
 H     -0.0085339837      0.0143207072     -0.0182209606
 O     -0.0003840742     -0.0043865342     -0.0057261267
 H     -0.0063713475     -0.0071561591     -0.0045918875
 H      0.0209797337     -0.0042146973     -0.0186301622
 O     -0.0037665313     -0.0017811409      0.0049008067
 H     -0.0084690524      0.0274498074      0.0059768444
 H      0.0089140759      0.0333780792      0.0042539104
 O     -0.0017939409     -0.0008633139     -0.0021464564
 H      0.0054622307     -0.0088826418      0.0263634064
 H      0.0472754929      0.0032431898      0.0029288895
 O      0.0028820432     -0.0000914175     -0.0023063178
 H      0.0036245694     -0.0107903431     -0.0078457687
 H     -0.0059625877      0.0314196114     -0.0145278838
 O     -0.0021503417     -0.0028336145      0.0076938829
 H     -0.0148591186      0.0063483313     -0.0056657300
 H     -0.0128151017      0.0065113767      0.0195815858
 O      0.0020539147     -0.0053511567      0.0062406715
 H     -0.0124883943     -0.0192383274     -0.0117639766
 H     -0.0210673954     -0.0095484350     -0.0069106466
 O     -0.0027825591      0.0039411143     -0.0025341131
 H     -0.0051897285     -0.0137101220      0.0116169353
 H      0.0284336860     -0.0048703022      0.0063321618
61
# ORCA AIMD Velocity Step 2000, t=500.00 fs, E_Pot=-267152.17861584 kJ mol^-1, Unit is Angstrom fs^-1
Zn     -0.0005994888     -0.0019134504     -0.0016186483
 O     -0.0058753378      0.0059915101      0.0042788235
 H     -0.0017830171      0.0014979717     -0.0232569330
 H     -0.0103462209     -0.0171340706     -0.0018761322
 O      0.0025235974     -0.0004861932     -0.0052641665
 H      0.0117180270      0.0249611476      0.0230380232
 H     -0.0113912994     -0.0053271873      0.0089751343
 O      0.0000041870     -0.0083399711     -0.0058385099
 H      0.0125251122     -0.0326404557     -0.0205322571
 H     -0.0004096207      0.0023914225      0.0003210031
 O     -0.0026320038      0.0044107134     -0.0049393411
 H      0.0049144222      0.0060003587     -0.0261776499
 H     -0.0043992398      0.0186597104      0.0033990556
 O     -0.0009867719      0.0010936901     -0.0060795964
 H      0.0262069056     -0.0022411717     -0.0130813502
 H     -0.0282835182     -0.0307221870     -0.0140527919
 O     -0.0054631206     -0.0096479685      0.0023696838
 H     -0.0156449654     -0.0078107296     -0.0035084493
 H      0.0108352312     -0.0015771658      0.0112102639
 O      0.0107289558      0.0057607002      0.0006891943
 H      0.0068605704      0.0288547535     -0.0197547236
 H      0.0171987371      0.0018133964      0.0187395724
 O      0.0007139237      0.0014707755      0.0024997611
 H      0.0263637603     -0.0020595863     -0.0176766642
 H     -0.0054449588     -0.0150813526      0.0070588425
 O      0.0085715266      0.0064639830      0.0020679747
 H      0.0104815124     -0.0088691034      0.0020898223
 H     -0.0051467451     -0.0075458376      0.0222319648
 O      0.0054588214      0.0060438393      0.0050173278
 H      0.0225282728      0.0110608275      0.0067052198
 H      0.0082113400      0.0221968059      0.0091069290
 O     -0.0016799390      0.0033359802     -0.0004056472
 H     -0.0249786535     -0.0075994622     -0.0061477895
 H     -0.0121228114      0.0139104689      0.0152395286
 O     -0.0027766670     -0.0015382671      0.0018481477
 H     -0.0162580679      0.0309620920     -0.0119084965
 H      0.0070448765     -0.0093717895     -0.0112351269
 O     -0.0018762713     -0.0052364872      0.0125752828
 H      0.0098571586     -0.0212838618      0.0153924132
 H      0.0058127048      0.0025420667     -0.0054132276
 O     -0.0076027783      0.0057681116      0.0024529844
 H     -0.0003210146     -0.0045309355      0.0067138834
 H      0.0039928948     -0.0040161366     -0.0129989213
 O     -0.0013378038     -0.0003517225     -0.0001061631
 H      0.0097131521      0.0028204101      0.0193474191
 H      0.0233192927      0.0034514694      0.0088300716
 O     -0.0031810735      0.0048905091      0.0011227361
 H      0.0010341684     -0.0014673848     -0.0027056385
 H     -0.0178741171     -0.0103156949     -0.0172671022
 O      0.0046008185     -0.0019313719     -0.0023398475
 H     -0.0274338542      0.0294592765      0.0286241303
 H     -0.0017976422      0.0020631175     -0.0178604341
 O      0.0037420797     -0.0069487385      0.0002873901
 H     -0.0073597957     -0.0119163749      0.0133604569
 H      0.0044583469      0.0041665103      0.0110481460
 O     -0.0031022992     -0.0048552051     -0.0007090556
 H      0.0176160876     -0.0103278386     -0.0345802025
 H     -0.0037520764      0.0214113490      0.0074216892
 O      0.0011160462      0.0011540214     -0.0013535598
 H     -0.0058034664     -0.0066063874     -0.0045263166
 H     -0.0162711691      0.0024655043      0.0009652564
61
# ORCA AIMD Velocity Step 4000, t=1000.00 fs, E_Pot=-267201.56187363 kJ mol^-1, Unit is Angstrom fs^-1
Zn     -0.0000353959     -0.0034869297     -0.0049598960
 O     -0.0000683173     -0.0033518728     -0.0126424088
 H     -0.0113656476     -0.0009240123     -0.0225883217
 H     -0.0128729704     -0.0000897254     -0.0254122971
 O     -0.0005028307      0.0079909102     -0.0025754539
 H      0.0068982286      0.0333801886      0.0015911387
 H      0.0042643443      0.0023466657     -0.0093120947
 O      0.0011064609      0.0017295191     -0.0042163698
 H      0.0064842490     -0.0081109729      0.0225173990
 H     -0.0269378608      0.0147037303     -0.0169404722
 O      0.0004638973      0.0051944870      0.0039329155
 H      0.0043705518      0.0122132024      0.0032659291
 H      0.0070585247      0.0122339139      0.0044574940
 O      0.0039823275      0.0041252403     -0.0004668318
 H     -0.0113857973     -0.0145875051      0.0064114095
 H      0.0085099682      0.0217833005      0.0039334747
 O      0.0066628187     -0.0037773759      0.0123986835
 H      0.0064600327     -0.0081013832     -0.0096256854
 H      0.0113247863     -0.0006918907     -0.0011987322
 O      0.0003682658     -0.0089761415      0.0065888849
 H     -0.0086594398     -0.0248873269      0.0040336593
 H      0.0210499474     -0.0158765078     -0.0084553741
 O      0.0030536754      0.0064877063     -0.0053517473
 H     -0.0042702635      0.0052780686     -0.0220194821
 H      0.0092505328      0.0060170028     -0.0071854835
 O      0.0091348306      0.0033227352     -0.0004919592
 H      0.0214739505      0.0065742054      0.0018097811
 H      0.0334461239      0.0022335643      0.0084491453
 O      0.0042042213      0.0109168948      0.0046657194
 H      0.0029561529      0.0030862269      0.0002021789
 H     -0.0077887370      0.0035661027      0.0259056604
 O     -0.0069974100     -0.0011741778      0.0034884300
 H      0.0009570756      0.0017815107     -0.0034182848
 H     -0.0022691555      0.0051245504      0.0093608752
 O     -0.0080187302     -0.0046306359      0.0083586307
 H     -0.0040438089     -0.0005265245      0.0118401621
 H     -0.0045711033      0.0049771633      0.0067762582
 O      0.0001715240     -0.0042732037      0.0106061130
 H      0.0027347462     -0.0143633761      0.0143104798
 H     -0.0160060543     -0.0121193967      0.0117569758
 O     -0.0062244735      0.0004853815      0.0072563759
 H     -0.0076792532     -0.0004860816      0.0090999205
 H     -0.0023738770     -0.0004653525     -0.0032202482
 O     -0.0102272384      0.0036820000      0.0003124039
 H      0.0228527492     -0.0462713134     -0.0169106631
 H     -0.0134790205     -0.0295664277     -0.0194738357
 O     -0.0065679033      0.0062231960     -0.0025551710
 H      0.0064326564      0.0110286068     -0.0035067621
 H      0.0024945612     -0.0081638283      0.0009535686
 O      0.0019514020      0.0012015906     -0.0014537196
 H      0.0125401378     -0.0010497439      0.0236594460
 H     -0.0078347304      0.0228140787     -0.0189848854
 O      0.0039297481     -0.0060502809      0.0004502856
 H     -0.0093869941     -0.0105774188     -0.0012694146
 H     -0.0066604563      0.0084241873      0.0140835519
 O      0.0027299115     -0.0010048894     -0.0063962521
 H     -0.0125434717     -0.0114554557     -0.0005816874
 H      0.0085158675      0.0015024466     -0.0125238934
 O     -0.0004110670     -0.0027952212     -0.0009288067
 H      0.0005845057      0.0009261947     -0.0040828082
 H     -0.0082541438      0.0112330197      0.0110056375
