6
# ORCA AIMD Position Step 0, t=0.00 fs, E_Pot=-401234.97160200 kJ mol^-1, Unit is Angstrom
 O     -0.0796352642     -0.0196416508     -0.0000000026
 H      0.8882335806      0.0410373495      0.0000000290
 H     -0.3710616857      0.8970396247     -0.0000000244
 O      2.8829157386      0.1199906909     -0.0000000001
 H      3.2897738558      0.5457869818      0.7619714577
 H      3.2897738193      0.5457870135     -0.7619714597
6
# ORCA AIMD Position Step 1, t=0.50 fs, E_Pot=-401234.30710305 kJ mol^-1, Unit is Angstrom
 O     -0.0794226654     -0.0193265556      0.0016402594
 H      0.8907803205      0.0438738895     -0.0090850931
 H     -0.3786296400      0.8954971662     -0.0110602187
 O      2.8842391739      0.1194919562     -0.0006016192
 H      3.2659684610      0.5400656678      0.7577931912
 H      3.2942204569      0.5531289766     -0.7541332406
6
# ORCA AIMD Position Step 2, t=1.00 fs, E_Pot=-401232.73572666 kJ mol^-1, Unit is Angstrom
 O     -0.0792130543     -0.0190312532      0.0032803420
 H      0.8934929017      0.0469670763     -0.0181633467
 H     -0.3860872768      0.8940820652     -0.0221229989
 O      2.8854853106      0.1189084698     -0.0012930208
 H      3.2430194958      0.5353738950      0.7552406762
 H      3.2988088143      0.5607167260     -0.7464971808
6
# ORCA AIMD Position Step 3, t=1.50 fs, E_Pot=-401231.17190046 kJ mol^-1, Unit is Angstrom
 O     -0.0789924330     -0.0187511408      0.0049196556
 H      0.8960530167      0.0503514808     -0.0272233618
 H     -0.3933323340      0.8926839499     -0.0331892280
 O      2.8866100594      0.1181867157     -0.0021599595
 H      3.2215686643      0.5325040113      0.7557875091
 H      3.3035908406      0.5686100693     -0.7391769218
6
# ORCA AIMD Position Step 4, t=2.00 fs, E_Pot=-401230.58824405 kJ mol^-1, Unit is Angstrom
 O     -0.0787475275     -0.0184796751      0.0065571270
 H      0.8981553512      0.0540499382     -0.0362491766
 H     -0.4002640757      0.8911731505     -0.0442569164
 O      2.8875875978      0.1172893009     -0.0032646197
 H      3.2019882007      0.5320126342      0.7604704197
 H      3.3085980543      0.5768488676     -0.7322231220
6
# ORCA AIMD Position Step 5, t=2.50 fs, E_Pot=-401231.33543762 kJ mol^-1, Unit is Angstrom
 O     -0.0784673331     -0.0182095089      0.0081912598
 H      0.8995399174      0.0580737791     -0.0452213573
 H     -0.4067914588      0.8894184909     -0.0553209705
 O      2.8884152414      0.1162042343     -0.0046283032
 H      3.1843074721      0.5340768688      0.7696086524
 H      3.3138379686      0.5854495683     -0.7256176966
6
# ORCA AIMD Position Step 6, t=3.00 fs, E_Pot=-401232.88530183 kJ mol^-1, Unit is Angstrom
 O     -0.0781441987     -0.0179335588      0.0098203117
 H      0.9000167999      0.0624233431     -0.0541190350
 H     -0.4128410445      0.8873036996     -0.0663738554
 O      2.8891120808      0.1149481484     -0.0062246726
 H      3.1682368573      0.5384450617      0.7827001904
 H      3.3192922380      0.5944033425     -0.7192774101
6
# ORCA AIMD Position Step 7, t=3.50 fs, E_Pot=-401234.24676828 kJ mol^-1, Unit is Angstrom
 O     -0.0777744337     -0.0176460115      0.0114425362
 H      0.8994823125      0.0670890358     -0.0629222807
 H     -0.4183640186      0.8847422781     -0.0774069455
 O      2.8897119935      0.1135618844     -0.0079873351
 H      3.1532803814      0.5445090766      0.7985519118
 H      3.3249154278      0.6036739133     -0.7130637598
6
# ORCA AIMD Position Step 8, t=4.00 fs, E_Pot=-401234.64245102 kJ mol^-1, Unit is Angstrom
 O     -0.0773584794     -0.0173430198      0.0130564602
 H      0.8979264685      0.0720524330     -0.0716146286
 H     -0.4233413568      0.8816873956     -0.0884123315
 O      2.8902545105      0.1121008305     -0.0098272283
 H      3.1388793497      0.5514574064      0.8155724294
 H      3.3306367638      0.6131978601     -0.7067999562
6
# ORCA AIMD Position Step 9, t=4.50 fs, E_Pot=-401233.89274159 kJ mol^-1, Unit is Angstrom
 O     -0.0769007051     -0.0170231380      0.0146611441
 H      0.8954324127      0.0772876028     -0.0801852869
 H     -0.4277868495      0.8781374019     -0.0993847025
 O      2.8907771800      0.1106245177     -0.0116514502
 H      3.1245294164      0.5584377817      0.8320912331
 H      3.3363646175      0.6228872091     -0.7002912183
6
# ORCA AIMD Position Step 10, t=5.00 fs, E_Pot=-401232.36665709 kJ mol^-1, Unit is Angstrom
 O     -0.0764088667     -0.0166874088      0.0162563795
 H      0.8921680556      0.0827624004     -0.0886307437
 H     -0.4317474784      0.8741358646     -0.1103229258
 O      2.8913110715      0.1091886072     -0.0133773017
 H      3.1098446747      0.5646786743      0.8466033052
 H      3.3419939348      0.6326351605     -0.6933464666
6
# ORCA AIMD Position Step 11, t=5.50 fs, E_Pot=-401230.70029892 kJ mol^-1, Unit is Angstrom
 O     -0.0758932651     -0.0163391058      0.0178427822
 H      0.8883703668      0.0884396059     -0.0969554091
 H     -0.4353009969      0.8697663221     -0.1212309725
 O      2.8918791307      0.1078400478     -0.0149399642
 H      3.0945741414      0.5695577236      0.8579116710
 H      3.3474157861      0.6423245403     -0.6857989257
6
# ORCA AIMD Position Step 12, t=6.00 fs, E_Pot=-401229.50841035 kJ mol^-1, Unit is Angstrom
 O     -0.0753656233     -0.0159831310      0.0194217418
 H      0.8843225228      0.0942777042     -0.1051709606
 H     -0.4385506095      0.8651419687     -0.1321178934
 O      2.8924962169      0.1066147078     -0.0162952069
 H      3.0785904082      0.5726291444      0.8651882090
 H      3.3525278243      0.6518379608     -0.6775238305
6
# ORCA AIMD Position Step 13, t=6.50 fs, E_Pot=-401229.19073085 kJ mol^-1, Unit is Angstrom
 O     -0.0748377631     -0.0156251575      0.0209952082
 H      0.8803257315      0.1002310796     -0.1132941806
 H     -0.4416174248      0.8603918967     -0.1429967287
 O      2.8931698463      0.1055363954     -0.0174194262
 H      3.0618674496      0.5736287028      0.8679875621
 H      3.3572443196      0.6610683354     -0.6684515898
6
# ORCA AIMD Position Step 14, t=7.00 fs, E_Pot=-401229.83568682 kJ mol^-1, Unit is Angstrom
 O     -0.0743201265     -0.0152704901      0.0225652965
 H      0.8766661040      0.1062494971     -0.1213432182
 H     -0.4446303389      0.8556436151     -0.1538821220
 O      2.8939011033      0.1046163648     -0.0183089983
 H      3.0444572498      0.5724720282      0.8662455850
 H      3.3615045910      0.6699283330     -0.6585763512
6
# ORCA AIMD Position Step 15, t=7.50 fs, E_Pot=-401231.19854176 kJ mol^-1, Unit is Angstrom
 O     -0.0738203913     -0.0149229303      0.0241337778
 H      0.8735823543      0.1122772750     -0.1293327951
 H     -0.4477152658      0.8510059462     -0.1647871635
 O      2.8946855474      0.1038527852     -0.0189800161
 H      3.0264684598      0.5692549478      0.8602788886
 H      3.3652795346      0.6783583798     -0.6479595996
6
# ORCA AIMD Position Step 16, t=8.00 fs, E_Pot=-401232.75027384 kJ mol^-1, Unit is Angstrom
 O     -0.0733423387     -0.0145836913      0.0257014947
 H      0.8712374451      0.1182520703     -0.1372688885
 H     -0.4509843698      0.8465531251     -0.1757195598
 O      2.8955142361      0.1032301912     -0.0194686702
 H      3.0080463992      0.5642572491      0.8507885866
 H      3.3685749774      0.6863315213     -0.6367277171
6
# ORCA AIMD Position Step 17, t=8.50 fs, E_Pot=-401233.81849971 kJ mol^-1, Unit is Angstrom
 O     -0.0728852112     -0.0142505948      0.0272678203
 H      0.8696993801      0.1241041282     -0.1451440149
 H     -0.4545267331      0.8423128965     -0.1866778713
 O      2.8963749851      0.1027191664     -0.0198316140
 H      2.9893519428      0.5579450200      0.8388585409
 H      3.3714324949      0.6938560031     -0.6250643385
6
# ORCA AIMD Position Step 18, t=9.00 fs, E_Pot=-401233.83832124 kJ mol^-1, Unit is Angstrom
 O     -0.0724437113     -0.0139177186      0.0288302758
 H      0.8689350022      0.1297564725     -0.1529341817
 H     -0.4584019439      0.8382608542     -0.1976485569
 O      2.8972540663      0.1022771096     -0.0201448583
 H      2.9705370276      0.5509592788      0.8259241527
 H      3.3739267038      0.7009743597     -0.6131966064
6
# ORCA AIMD Position Step 19, t=9.50 fs, E_Pot=-401232.66587555 kJ mol^-1, Unit is Angstrom
 O     -0.0720086594     -0.0135755899      0.0303844012
 H      0.8688179327      0.1351265626     -0.1605983495
 H     -0.4626374137      0.8343219711     -0.2086044966
 O      2.8981383443      0.1018512163     -0.0204989528
 H      2.9517166645      0.5440726484      0.8136767050
 H      3.3761591733      0.7077592970     -0.6013759721
6
# ORCA AIMD Position Step 20, t=10.00 fs, E_Pot=-401230.78277160 kJ mol^-1, Unit is Angstrom
 O     -0.0715681796     -0.0132118984      0.0319239209
 H      0.8691487563      0.1401294330     -0.1680806426
 H     -0.4672296136      0.8303789226     -0.2195053683
 O      2.8990175577      0.1013848336     -0.0209882743
 H      2.9329421537      0.5380958642      0.8038697842
 H      3.3782488561      0.7143061756     -0.5898546572
6
# ORCA AIMD Position Step 21, t=10.50 fs, E_Pot=-401229.14534493 kJ mol^-1, Unit is Angstrom
 O     -0.0711092194     -0.0128126524      0.0334412042
 H      0.8696841230      0.1446821498     -0.1753151314
 H     -0.4721489646      0.8262861226     -0.2303000861
 O      2.8998859979      0.1008273759     -0.0216939769
 H      2.9141871073      0.5337307857      0.7980222958
 H      3.3803193566      0.7207224777     -0.5788593893
6
# ORCA AIMD Position Step 22, t=11.00 fs, E_Pot=-401228.61887628 kJ mol^-1, Unit is Angstrom
 O     -0.0706191068     -0.0123635677      0.0349279370
 H      0.8701689545      0.1487088259     -0.1822322290
 H     -0.4773472903      0.8218868826     -0.2409309234
 O      2.9007426060      0.1001456606     -0.0226644826
 H      2.8953607085      0.5314036828      0.7970841340
 H      3.3824840684      0.7271144630     -0.5685668611
6
# ORCA AIMD Position Step 23, t=11.50 fs, E_Pot=-401229.36646422 kJ mol^-1, Unit is Angstrom
 O     -0.0700869439     -0.0118515193      0.0363759226
 H      0.8703673960      0.1521456487     -0.1887658197
 H     -0.4827667314      0.8170315592     -0.2513389255
 O      2.9015891561      0.0993324408     -0.0239012465
 H      2.8763519966      0.5311449067      0.8011907734
 H      3.3848308133      0.7335719402     -0.5590844238
6
# ORCA AIMD Position Step 24, t=12.00 fs, E_Pot=-401230.73976942 kJ mol^-1, Unit is Angstrom
 O     -0.0695046944     -0.0112658161      0.0377778985
 H      0.8700888236      0.1549451370     -0.1948602147
 H     -0.4883486449      0.8115935995     -0.2614697377
 O      2.9024273571      0.0984081123     -0.0253571715
 H      2.8570892391      0.5325765334      0.8096274669
 H      3.3874086318      0.7401534527     -0.5504396290
6
# ORCA AIMD Position Step 25, t=12.50 fs, E_Pot=-401231.77161492 kJ mol^-1, Unit is Angstrom
 O     -0.0688678986     -0.0105992728      0.0391282998
 H      0.8692069981      0.1570795260     -0.2004762207
 H     -0.4940418575      0.8054832280     -0.2712795340
 O      2.9032564677      0.0974149208     -0.0269489206
 H      2.8375868808      0.5350167342      0.8210247010
 H      3.3902191278      0.7468738029     -0.5425803840
6
# ORCA AIMD Position Step 26, t=13.00 fs, E_Pot=-401231.80010910 kJ mol^-1, Unit is Angstrom
 O     -0.0681760386     -0.0098488919      0.0404238820
 H      0.8676717773      0.1585427627     -0.2055959808
 H     -0.4998090327      0.7986562030     -0.2807400453
 O      2.9040725334      0.0964069205     -0.0285766681
 H      2.8179598518      0.5376455934      0.8336824442
 H      3.3932147196      0.7536976721     -0.5353857202
6
# ORCA AIMD Position Step 27, t=13.50 fs, E_Pot=-401230.75586312 kJ mol^-1, Unit is Angstrom
 O     -0.0674325762     -0.0090161807      0.0416641584
 H      0.8655133771      0.1593512332     -0.2102261911
 H     -0.5056308499      0.7911180155     -0.2898423837
 O      2.9048691919      0.0954400579     -0.0301428489
 H      2.7984059487      0.5396613516      0.8458858093
 H      3.3963040043      0.7605408855     -0.5286837745
6
# ORCA AIMD Position Step 28, t=14.00 fs, E_Pot=-401229.05778292 kJ mol^-1, Unit is Angstrom
 O     -0.0666446842     -0.0081070211      0.0428515936
 H      0.8628389739      0.1595429603     -0.2143995093
 H     -0.5115072488      0.7829224232     -0.2985989294
 O      2.9056391321      0.0945649060     -0.0315649036
 H      2.7791709852      0.5403863663      0.8561310501
 H      3.3993638207      0.7672799646     -0.5222752642
6
# ORCA AIMD Position Step 29, t=14.50 fs, E_Pot=-401227.33307914 kJ mol^-1, Unit is Angstrom
 O     -0.0658227110     -0.0071311657      0.0439915459
 H      0.8598224098      0.1591755201     -0.2181739911
 H     -0.5174558995      0.7741653823     -0.3070432304
 O      2.9063753961      0.0938224822     -0.0327813519
 H      2.7605123378      0.5393177171      0.8632460026
 H      3.4022553037      0.7737680638     -0.5159572875
6
# ORCA AIMD Position Step 30, t=15.00 fs, E_Pot=-401226.15712540 kJ mol^-1, Unit is Angstrom
 O     -0.0649793841     -0.0061013686      0.0450919236
 H      0.8566870325      0.1583225726     -0.2216302462
 H     -0.5235078333      0.7649745891     -0.3152275971
 O      2.9070722571      0.0932422655     -0.0337532269
 H      2.7426680052      0.5361395740      0.8664340375
 H      3.4048410490      0.7798541963     -0.5095442974
6
# ORCA AIMD Position Step 31, t=15.50 fs, E_Pot=-401225.88484757 kJ mol^-1, Unit is Angstrom
 O     -0.0641287525     -0.0050322006      0.0461625454
 H      0.8536818856      0.1570690949     -0.2248661249
 H     -0.5297003184      0.7554953573     -0.3232183756
 O      2.9077257700      0.0928412868     -0.0344633742
 H      2.7258312844      0.5307179247      0.8652804972
 H      3.4070015850      0.7854030382     -0.5028855612
6
# ORCA AIMD Position Step 32, t=16.00 fs, E_Pot=-401226.56715663 kJ mol^-1, Unit is Angstrom
 O     -0.0632849643     -0.0039387565      0.0472142907
 H      0.8510540087      0.1555059625     -0.2279894737
 H     -0.5360683541      0.7458754532     -0.3310897809
 O      2.9083342354      0.0926235629     -0.0349153742
 H      2.7101291957      0.5230915013      0.8597480449
 H      3.4086493831      0.7903130485     -0.4958775250
6
# ORCA AIMD Position Step 33, t=16.50 fs, E_Pot=-401227.93294946 kJ mol^-1, Unit is Angstrom
 O     -0.0624609037     -0.0028352315      0.0482580169
 H      0.8490171534      0.1537236944     -0.2311089290
 H     -0.5426346753      0.7362486434     -0.3389159798
 O      2.9088988296      0.0925796265     -0.0351330077
 H      2.6956021173      0.5134653458      0.8501748863
 H      3.4097388759      0.7945304646     -0.4884704764
6
# ORCA AIMD Position Step 34, t=17.00 fs, E_Pot=-401229.43808414 kJ mol^-1, Unit is Angstrom
 O     -0.0616669083     -0.0017336642      0.0493034515
 H      0.8477226043      0.1518065762     -0.2343243105
 H     -0.5494004807      0.7267205609     -0.3467630210
 O      2.9094245186      0.0926861058     -0.0351603915
 H      2.6821828165      0.5022078705      0.8372784406
 H      3.4102724676      0.7980589964     -0.4806701333
6
# ORCA AIMD Position Step 35, t=17.50 fs, E_Pot=-401230.40760265 kJ mol^-1, Unit is Angstrom
 O     -0.0609097622     -0.0006429941      0.0503582029
 H      0.8472365870      0.1498278514     -0.2377178598
 H     -0.5563382228      0.7173585069     -0.3546816564
 O      2.9099211739      0.0929058194     -0.0350619972
 H      2.6696768284      0.4898450250      0.8221516680
 H      3.4103018507      0.8009641799     -0.4725339329
6
# ORCA AIMD Position Step 36, t=18.00 fs, E_Pot=-401230.29034582 kJ mol^-1, Unit is Angstrom
 O     -0.0601921502      0.0004314518      0.0514270311
 H      0.8475281114      0.1478465304     -0.2413477360
 H     -0.5633877801      0.7081864562     -0.3627020430
 O      2.9104044666      0.0931890528     -0.0349210092
 H      2.6577511710      0.4770408492      0.8062282914
 H      3.4099247532      0.8033726090     -0.4641625255
6
# ORCA AIMD Position Step 37, t=18.50 fs, E_Pot=-401228.97409965 kJ mol^-1, Unit is Angstrom
 O     -0.0595126881      0.0014879670      0.0525115172
 H      0.8484701182      0.1459062128     -0.2452450548
 H     -0.5704570556      0.6991860730     -0.3708313208
 O      2.9108956893      0.0934770152     -0.0348337521
 H      2.6459452128      0.4645489977      0.7911810710
 H      3.4092768434      0.8054655801     -0.4556866442
6
# ORCA AIMD Position Step 38, t=19.00 fs, E_Pot=-401226.97823048 kJ mol^-1, Unit is Angstrom
 O     -0.0588665171      0.0025279954      0.0536102100
 H      0.8498544778      0.1440358042     -0.2494150400
 H     -0.5774274495      0.6903035302     -0.3790545902
 O      2.9114193329      0.0937082645     -0.0348980530
 H      2.6337220491      0.4531226078      0.7787193991
 H      3.4085187149      0.8074671731     -0.4472496092
6
# ORCA AIMD Position Step 39, t=19.50 fs, E_Pot=-401225.27601191 kJ mol^-1, Unit is Angstrom
 O     -0.0582462836      0.0035553369      0.0547191689
 H      0.8514170339      0.1422516012     -0.2538415962
 H     -0.5841631082      0.6814601891     -0.3873387155
 O      2.9119977784      0.0938278327     -0.0351957058
 H      2.6205697774      0.4433873960      0.7702910813
 H      3.4078186279      0.8096261505     -0.4389876803
6
# ORCA AIMD Position Step 40, t=20.00 fs, E_Pot=-401224.70724765 kJ mol^-1, Unit is Angstrom
 O     -0.0576433528      0.0045751267      0.0558328282
 H      0.8528694382      0.1405602570     -0.2584944320
 H     -0.5905232569      0.6725659745     -0.3956387057
 O      2.9126440058      0.0937969906     -0.0357731535
 H      2.6061373484      0.4357102923      0.7667556151
 H      3.4073321329      0.8121922119     -0.4310101523
6
# ORCA AIMD Position Step 41, t=20.50 fs, E_Pot=-401225.38267449 kJ mol^-1, Unit is Angstrom
 O     -0.0570490099      0.0055928128      0.0569449719
 H      0.8539313917      0.1389617809     -0.2633369783
 H     -0.5963752497      0.6635326203     -0.4039051102
 O      2.9133552703      0.0936000691     -0.0366285134
 H      2.5903562045      0.4301196216      0.7681608618
 H      3.4071806853      0.8153875162     -0.4233821263
6
# ORCA AIMD Position Step 42, t=21.00 fs, E_Pot=-401226.62463653 kJ mol^-1, Unit is Angstrom
 O     -0.0564555282      0.0066132153      0.0580497411
 H      0.8543606770      0.1374521998     -0.2683342654
 H     -0.6016075486      0.6542859478     -0.4120919137
 O      2.9141111973      0.0932454752     -0.0377119233
 H      2.5734897879      0.4263188763      0.7737363835
 H      3.4074322673      0.8193767857     -0.4161125723
6
# ORCA AIMD Position Step 43, t=21.50 fs, E_Pot=-401227.49317080 kJ mol^-1, Unit is Angstrom
 O     -0.0558569683      0.0076397910      0.0591425212
 H      0.8539768074      0.1360256852     -0.2734595843
 H     -0.6061406621      0.6447754522     -0.4201636474
 O      2.9148776778      0.0927609848     -0.0389394353
 H      2.5560850197      0.4237875070      0.7821098215
 H      3.4080880661      0.8242411743     -0.4091504893
6
# ORCA AIMD Position Step 44, t=22.00 fs, E_Pot=-401227.39256927 kJ mol^-1, Unit is Angstrom
 O     -0.0552496822      0.0086741814      0.0602206128
 H      0.8526769331      0.1346759086     -0.2786993494
 H     -0.6099350546      0.6349802250     -0.4281008470
 O      2.9156145778      0.0921862730     -0.0402133552
 H      2.5388544656      0.4219161993      0.7916342141
 H      3.4090779323      0.8299614556     -0.4023897254
6
# ORCA AIMD Position Step 45, t=22.50 fs, E_Pot=-401226.31307305 kJ mol^-1, Unit is Angstrom
 O     -0.0546325449      0.0097160648      0.0612836316
 H      0.8504435467      0.1333966291     -0.2840559683
 H     -0.6129953492      0.6249108383     -0.4359032327
 O      2.9162837081      0.0915657829     -0.0414406060
 H      2.5225440208      0.4201225464      0.8006921396
 H      3.4102663883      0.8364154118     -0.3956819547
6
# ORCA AIMD Position Step 46, t=23.00 fs, E_Pot=-401224.69453031 kJ mol^-1, Unit is Angstrom
 O     -0.0540069562      0.0107632725      0.0623336371
 H      0.8473443429      0.1321816805     -0.2895489081
 H     -0.6153707499      0.6146075362     -0.4435905059
 O      2.9168544739      0.0909434206     -0.0425445606
 H      2.5078273967      0.4179221043      0.8079031334
 H      3.4114690491      0.8433909480     -0.3888564530
6
# ORCA AIMD Position Step 47, t=23.50 fs, E_Pot=-401223.14306412 kJ mol^-1, Unit is Angstrom
 O     -0.0533766300      0.0118121842      0.0633749173
 H      0.8435240939      0.1310242855     -0.2952135303
 H     -0.6171511466      0.6041345956     -0.4512000699
 O      2.9173065069      0.0903591292     -0.0434700857
 H      2.4952426973      0.4149571287      0.8122249238
 H      3.4124751621      0.8506117937     -0.3817413247
6
# ORCA AIMD Position Step 48, t=24.00 fs, E_Pot=-401222.18485844 kJ mol^-1, Unit is Angstrom
 O     -0.0527471431      0.0128583826      0.0644133961
 H      0.8391882982      0.1299156863     -0.3010974101
 H     -0.6184587769      0.5935711710     -0.4587814605
 O      2.9176301000      0.0898465974     -0.0441842629
 H      2.4851604612      0.4109996229      0.8129863589
 H      3.4130735181      0.8577709546     -0.3741848135
6
# ORCA AIMD Position Step 49, t=24.50 fs, E_Pot=-401222.11352625 kJ mol^-1, Unit is Angstrom
 O     -0.0521253661      0.0138972074      0.0654559917
 H      0.8345849993      0.1288444170     -0.3072557176
 H     -0.6194396377      0.5830032208     -0.4663909682
 O      2.9178255538      0.0894314389     -0.0446752436
 H      2.4777693750      0.4059439257      0.8098870819
 H      3.4130776560      0.8645670256     -0.3660729645
6
# ORCA AIMD Position Step 50, t=25.00 fs, E_Pot=-401222.91892159 kJ mol^-1, Unit is Angstrom
 O     -0.0515185462      0.0149247443      0.0665093170
 H      0.8299750614      0.1277939225     -0.3137419396
 H     -0.6202483102      0.5725100886     -0.4740806229
 O      2.9179023871      0.0891297406     -0.0449509341
 H      2.4730678510      0.3997977924      0.8029899473
 H      3.4123468298      0.8707362578     -0.3573425907
6
# ORCA AIMD Position Step 51, t=25.50 fs, E_Pot=-401224.27977634 kJ mol^-1, Unit is Angstrom
 O     -0.0509333706      0.0159385339      0.0675784649
 H      0.8256036803      0.1267413211     -0.3205981986
 H     -0.6210340111      0.5621545143     -0.4818887219
 O      2.9178788116      0.0889465802     -0.0450382759
 H      2.4708551053      0.3926769731      0.7927178769
 H      3.4108029270      0.8760814850     -0.3479894131
6
# ORCA AIMD Position Step 52, t=26.00 fs, E_Pot=-401225.62914689 kJ mol^-1, Unit is Angstrom
 O     -0.0503749852      0.0169382313      0.0686657104
 H      0.8216722276      0.1256559526     -0.3278445325
 H     -0.6219274483      0.5519736485     -0.4898301741
 O      2.9177816983      0.0888751191     -0.0449831143
 H      2.4707225394      0.3848018877      0.7798532614
 H      3.4084390617      0.8804898175     -0.3380693239
6
# ORCA AIMD Position Step 53, t=26.50 fs, E_Pot=-401226.31944884 kJ mol^-1, Unit is Angstrom
 O     -0.0498461562      0.0179259830      0.0697694313
 H      0.8183146468      0.1244988929     -0.3354692720
 H     -0.6230298551      0.5419735817     -0.4978890387
 O      2.9176464203      0.0888960612     -0.0448497410
 H      2.4720508817      0.3764923439      0.7655283564
 H      3.4053242576      0.8839464758     -0.3276960035
6
# ORCA AIMD Position Step 54, t=27.00 fs, E_Pot=-401225.89614202 kJ mol^-1, Unit is Angstrom
 O     -0.0493467490      0.0189064622      0.0708834566
 H      0.8155834297      0.1232235308     -0.3434226014
 H     -0.6244064703      0.5321282468     -0.5060146998
 O      2.9175157267      0.0889784733     -0.0447183906
 H      2.4740299548      0.3681502202      0.7511776697
 H      3.4016007846      0.8865390609     -0.3170329590
6
# ORCA AIMD Position Step 55, t=27.50 fs, E_Pot=-401224.39873464 kJ mol^-1, Unit is Angstrom
 O     -0.0488736221      0.0198865443      0.0719969956
 H      0.8134473265      0.1217773752     -0.3516148550
 H     -0.6260851570      0.5223827787     -0.5141225228
 O      2.9174363813      0.0890825864     -0.0446785750
 H      2.4757208914      0.3602195593      0.7384191806
 H      3.3974745292      0.8884529735     -0.3062804641
6
# ORCA AIMD Position Step 56, t=28.00 fs, E_Pot=-401222.47927492 kJ mol^-1, Unit is Angstrom
 O     -0.0484209597      0.0208746782      0.0730951857
 H      0.8118009403      0.1201049207     -0.3599201840
 H     -0.6280600323      0.5126606286     -0.5220990031
 O      2.9174525465      0.0891651147     -0.0448166437
 H      2.4761776893      0.3531170689      0.7288390324
 H      3.3931977499      0.8899564915     -0.2956575766
6
# ORCA AIMD Position Step 57, t=28.50 fs, E_Pot=-401221.11751586 kJ mol^-1, Unit is Angstrom
 O     -0.0479809727      0.0218800445      0.0741602096
 H      0.8104842386      0.1181512443     -0.3681852989
 H     -0.6302993730      0.5028733217     -0.5298108749
 O      2.9175963139      0.0891866691     -0.0451985200
 H      2.4746217074      0.3471409815      0.7236959756
 H      3.3890444095      0.8913742530     -0.2853804689
6
# ORCA AIMD Position Step 58, t=29.00 fs, E_Pot=-401220.99807987 kJ mol^-1, Unit is Angstrom
 O     -0.0475448088      0.0229116809      0.0751727352
 H      0.8093072102      0.1158656002     -0.3762414368
 H     -0.6327556177      0.4929307041     -0.5371161450
 O      2.9178782009      0.0891195038     -0.0458525948
 H      2.4706235189      0.3423873312      0.7236266478
 H      3.3852789523      0.8930480560     -0.2756390731
6
# ORCA AIMD Position Step 59, t=29.50 fs, E_Pot=-401222.02418371 kJ mol^-1, Unit is Angstrom
 O     -0.0471035865      0.0239775737      0.0761136866
 H      0.8080784293      0.1132050196     -0.3839191861
 H     -0.6353776419      0.4827517628     -0.5438774382
 O      2.9182821289      0.0889527796     -0.0467604529
 H      2.4642163219      0.3387141297      0.7284771608
 H      3.3821227087      0.8952891552     -0.2665758003
6
# ORCA AIMD Position Step 60, t=30.00 fs, E_Pot=-401223.41968545 kJ mol^-1, Unit is Angstrom
 O     -0.0466492521      0.0250839698      0.0769658709
 H      0.8066290189      0.1101369861     -0.3910621955
 H     -0.6381215020      0.4722728600     -0.5499740854
 O      2.9187682441      0.0886934622     -0.0478608223
 H      2.4558806418      0.3357758903      0.7373521340
 H      3.3797248200      0.8983294757     -0.2582719175
6
# ORCA AIMD Position Step 61, t=30.50 fs, E_Pot=-401224.30022743 kJ mol^-1, Unit is Angstrom
 O     -0.0461753641      0.0262348382      0.0777155229
 H      0.8048342597      0.1066413960     -0.3975404525
 H     -0.6409602441      0.4614543230     -0.5553133423
 O      2.9192824280      0.0883636461     -0.0490645300
 H      2.4464164193      0.3331107134      0.7488461758
 H      3.3781398432      0.9022770197     -0.2507416633
6
# ORCA AIMD Position Step 62, t=31.00 fs, E_Pot=-401224.19433439 kJ mol^-1, Unit is Angstrom
 O     -0.0456775977      0.0274316682      0.0783533648
 H      0.8026264155      0.1027111138     -0.4032599208
 H     -0.6438896509      0.4502830281     -0.5598375067
 O      2.9197681969      0.0879956840     -0.0502736227
 H      2.4367613867      0.3302406662      0.7613526360
 H      3.3773214303      0.9070928320     -0.2439375840
6
# ORCA AIMD Position Step 63, t=31.50 fs, E_Pot=-401223.18416301 kJ mol^-1, Unit is Angstrom
 O     -0.0451540744      0.0286734696      0.0788753510
 H      0.8000019996      0.0983517777     -0.4081698704
 H     -0.6469313032      0.4387725654     -0.5635284657
 O      2.9201764557      0.0876273322     -0.0513973685
 H      2.4278283437      0.3267482782      0.7733314938
 H      3.3771312742      0.9125916068     -0.2377643905
6
# ORCA AIMD Position Step 64, t=32.00 fs, E_Pot=-401221.73399509 kJ mol^-1, Unit is Angstrom
 O     -0.0446054939      0.0299569964      0.0792829645
 H      0.7970224947      0.0935807759     -0.4122668233
 H     -0.6501320526      0.4269606818     -0.5664086019
 O      2.9204710016      0.0872975768     -0.0523619978
 H      2.4203959842      0.3223168856      0.7834830687
 H      3.3773617666      0.9184676022     -0.2320979087
6
# ORCA AIMD Position Step 65, t=32.50 fs, E_Pot=-401220.42605100 kJ mol^-1, Unit is Angstrom
 O     -0.0440350599      0.0312772009      0.0795829589
 H      0.7938080204      0.0884254020     -0.4155942601
 H     -0.6535593034      0.4149039400     -0.5685372152
 O      2.9206301089      0.0870432123     -0.0531147136
 H      2.4150538310      0.3167412710      0.7908313238
 H      3.3777663466      0.9243382954     -0.2268045084
6
# ORCA AIMD Position Step 66, t=33.00 fs, E_Pot=-401219.74576870 kJ mol^-1, Unit is Angstrom
 O     -0.0434482246      0.0326278013      0.0797866865
 H      0.7905256627      0.0829206644     -0.4182388106
 H     -0.6572934793      0.4026709356     -0.5700039422
 O      2.9206457259      0.0868959106     -0.0536242654
 H      2.4121823009      0.3099219783      0.7947506715
 H      3.3780922735      0.9297965445     -0.2217585299
6
# ORCA AIMD Position Step 67, t=33.50 fs, E_Pot=-401219.94948778 kJ mol^-1, Unit is Angstrom
 O     -0.0428522343      0.0340019718      0.0799089241
 H      0.7873712971      0.0771066887     -0.4203221373
 H     -0.6614168905      0.3903339426     -0.5709184623
 O      2.9205217663      0.0868796693     -0.0538802042
 H      2.4119486230      0.3018535660      0.7949686084
 H      3.3781116454      0.9344628403     -0.2168565094
6
# ORCA AIMD Position Step 68, t=34.00 fs, E_Pot=-401221.00112022 kJ mol^-1, Unit is Angstrom
 O     -0.0422555051      0.0353929862      0.0799664113
 H      0.7845481104      0.0710263529     -0.4219893738
 H     -0.6660018058      0.3779611063     -0.5713989002
 O      2.9202725266      0.0870087920     -0.0538921187
 H      2.4143083314      0.2926132420      0.7915614674
 H      3.3776446789      0.9380286832     -0.2120250266
6
# ORCA AIMD Position Step 69, t=34.50 fs, E_Pot=-401222.56782633 kJ mol^-1, Unit is Angstrom
 O     -0.0416668210      0.0367948525      0.0799760602
 H      0.7822411170      0.0647229899     -0.4233941107
 H     -0.6710972458      0.3656086977     -0.5715584082
 O      2.9199217010      0.0872865794     -0.0536894726
 H      2.4190047620      0.2823509107      0.7849557795
 H      3.3765753837      0.9402872828     -0.2072246448
6
# ORCA AIMD Position Step 70, t=35.00 fs, E_Pot=-401224.08866212 kJ mol^-1, Unit is Angstrom
 O     -0.0410944816      0.0382027008      0.0799533562
 H      0.7805934299      0.0582390429     -0.4246833869
 H     -0.6767184094      0.3533163146     -0.5714945498
 O      2.9195018045      0.0877043064     -0.0533219134
 H      2.4255666147      0.2712807094      0.7759337606
 H      3.3748628052      0.9411582396     -0.2024507585
6
# ORCA AIMD Position Step 71, t=35.50 fs, E_Pot=-401224.94600918 kJ mol^-1, Unit is Angstrom
 O     -0.0405454290      0.0396130293      0.0799108176
 H      0.7796845959      0.0516152585     -0.4259823893
 H     -0.6828383784      0.3411037870     -0.5712799123
 O      2.9190534452      0.0882413273     -0.0528588599
 H      2.4333163662      0.2596689869      0.7656233664
 H      3.3725436494      0.9406978981     -0.1977304210
6
# ORCA AIMD Position Step 72, t=36.00 fs, E_Pot=-401224.73813773 kJ mol^-1, Unit is Angstrom
 O     -0.0400245310      0.0410236927      0.0798569683
 H      0.7795166177      0.0448907869     -0.4273827405
 H     -0.6893850025      0.3289712173     -0.5709573019
 O      2.9186233664      0.0888662564     -0.0523867294
 H      2.4414040694      0.2478147184      0.7554479933
 H      3.3697290657      0.9391002356     -0.1931162765
6
# ORCA AIMD Position Step 73, t=36.50 fs, E_Pot=-401223.55864171 kJ mol^-1, Unit is Angstrom
 O     -0.0395341384      0.0424336819      0.0797959424
 H      0.7800100526      0.0381038987     -0.4289360147
 H     -0.6962435131      0.3169016822     -0.5705397728
 O      2.9182599922      0.0895395918     -0.0520015935
 H      2.4488872873      0.2360179986      0.7470006772
 H      3.3665948827      0.9366868015     -0.1886774968
6
# ORCA AIMD Position Step 74, t=37.00 fs, E_Pot=-401222.07019842 kJ mol^-1, Unit is Angstrom
 O     -0.0390739901      0.0438427709      0.0797277496
 H      0.7810110419      0.0312929057     -0.4306533708
 H     -0.7032645884      0.3048658623     -0.5700150878
 O      2.9180057651      0.0902178521     -0.0517958019
 H      2.4548692055      0.2245373096      0.7418198489
 H      3.3633646653      0.9338838464     -0.1844879694
6
# ORCA AIMD Position Step 75, t=37.50 fs, E_Pot=-401221.18228195 kJ mol^-1, Unit is Angstrom
 O     -0.0386414721      0.0452511175      0.0796491301
 H      0.7823081796      0.0244968476     -0.4325110759
 H     -0.7102768404      0.2928277154     -0.5693536623
 O      2.9178873034      0.0908586908     -0.0518398878
 H      2.4586789639      0.2135459404      0.7410883129
 H      3.3602853119      0.9311847021     -0.1806125698
6
# ORCA AIMD Position Step 76, t=38.00 fs, E_Pot=-401221.44993338 kJ mol^-1, Unit is Angstrom
 O     -0.0382321549      0.0466588989      0.0795548106
 H      0.7836561864      0.0177556033     -0.4344604398
 H     -0.7171019066      0.2807502221     -0.5685184581
 O      2.9179068063      0.0914258256     -0.0521652147
 H      2.4600390767      0.2031065027      0.7453436412
 H      3.3575960155      0.9290969611     -0.1770931005
6
# ORCA AIMD Position Step 77, t=38.50 fs, E_Pot=-401222.67369041 kJ mol^-1, Unit is Angstrom
 O     -0.0378404992      0.0480660383      0.0794389442
 H      0.7848027938      0.0111092555     -0.4364401748
 H     -0.7235702822      0.2686004348     -0.5674753299
 O      2.9180392484      0.0918925838     -0.0527551924
 H      2.4591450078      0.1931794231      0.7543264892
 H      3.3554933601      0.9280776261     -0.1739361685
6
# ORCA AIMD Position Step 78, t=39.00 fs, E_Pot=-401224.07550552 kJ mol^-1, Unit is Angstrom
 O     -0.0374606122      0.0494720476      0.0792965695
 H      0.7855156668      0.0045967154     -0.4383894856
 H     -0.7295365889      0.2563533867     -0.5662028901
 O      2.9182377590      0.0922436110     -0.0535499349
 H      2.4566131751      0.1836633100      0.7670470175
 H      3.3540982859      0.9284656021     -0.1711058789
6
# ORCA AIMD Position Step 79, t=39.50 fs, E_Pot=-401224.86154427 kJ mol^-1, Unit is Angstrom
 O     -0.0370869427      0.0508760103      0.0791247830
 H      0.7856048246     -0.0017461823     -0.4402593005
 H     -0.7348914294      0.2439941990     -0.5646996429
 O      2.9184450653      0.0924752383     -0.0544619357
 H      2.4533242429      0.1744460238      0.7820329073
 H      3.3534316397      0.9304248526     -0.1685233036
6
# ORCA AIMD Position Step 80, t=40.00 fs, E_Pot=-401224.67049334 kJ mol^-1, Unit is Angstrom
 O     -0.0367148777      0.0522766667      0.0789236307
 H      0.7849400849     -0.0078888403     -0.4420214347
 H     -0.7395700102      0.2315187143     -0.5629887560
 O      2.9186059585      0.0925950255     -0.0553952699
 H      2.4502351679      0.1654433487      0.7976406054
 H      3.3534049092      0.9339131523     -0.1660731576
6
# ORCA AIMD Position Step 81, t=40.50 fs, E_Pot=-401223.65160596 kJ mol^-1, Unit is Angstrom
 O     -0.0363412095      0.0536725961      0.0786965479
 H      0.7834615299     -0.0138080493     -0.4436744895
 H     -0.7435559447      0.2189325100     -0.5611190748
 O      2.9186764579      0.0926205388     -0.0562614283
 H      2.4482252656      0.1566151148      0.8123193731
 H      3.3538294630      0.9386856269     -0.1636166005
6
# ORCA AIMD Position Step 82, t=41.00 fs, E_Pot=-401222.27778384 kJ mol^-1, Unit is Angstrom
 O     -0.0359644674      0.0550624468      0.0784503659
 H      0.7811832369     -0.0194897637     -0.4452465153
 H     -0.7468804017      0.2062487665     -0.5591627280
 O      2.9186281055      0.0925771571     -0.0569888621
 H      2.4480028589      0.1479626435      0.8247791875
 H      3.3544424110      0.9443323686     -0.1610074832
6
# ORCA AIMD Position Step 83, t=41.50 fs, E_Pot=-401221.10027818 kJ mol^-1, Unit is Angstrom
 O     -0.0355851037      0.0564451787      0.0781948853
 H      0.7781903388     -0.0249302079     -0.4467942355
 H     -0.7496166454      0.1934853827     -0.5572094518
 O      2.9184482342      0.0924949555     -0.0575269845
 H      2.4500651512      0.1395167251      0.8340711126
 H      3.3549429110      0.9503400669     -0.1581088793
6
# ORCA AIMD Position Step 84, t=42.00 fs, E_Pot=-401220.55887948 kJ mol^-1, Unit is Angstrom
 O     -0.0352055210      0.0578202740      0.0779420446
 H      0.7746296902     -0.0301360602     -0.4483987083
 H     -0.7518704050      0.1806617866     -0.5553580898
 O      2.9181379875      0.0924051271     -0.0578468621
 H      2.4546909136      0.1313234300      0.8396128201
 H      3.3550310552      0.9561630238     -0.1548072774
6
# ORCA AIMD Position Step 85, t=42.50 fs, E_Pot=-401220.86512935 kJ mol^-1, Unit is Angstrom
 O     -0.0348299176      0.0591878712      0.0777047080
 H      0.7706942468     -0.0351234944     -0.4501572095
 H     -0.7537666095      0.1677958527     -0.5537057638
 O      2.9177096868      0.0923365656     -0.0579406950
 H      2.4619472852      0.1234311639      0.8411910727
 H      3.3544427442      0.9612903315     -0.1510230236
6
# ORCA AIMD Position Step 86, t=43.00 fs, E_Pot=-401221.94462145 kJ mol^-1, Unit is Angstrom
 O     -0.0344639403      0.0605487830      0.0774952973
 H      0.7666034147     -0.0399160957     -0.4521725480
 H     -0.7554350518      0.1549016010     -0.5523369997
 O      2.9171845143      0.0923130345     -0.0578214181
 H      2.4716990100      0.1158798324      0.8389619229
 H      3.3529770435      0.9653015785     -0.1467166948
6
# ORCA AIMD Position Step 87, t=43.50 fs, E_Pot=-401223.43865097 kJ mol^-1, Unit is Angstrom
 O     -0.0341141236      0.0619043884      0.0773241572
 H      0.7625783740     -0.0445414868     -0.4545388397
 H     -0.7569943065      0.1419876293     -0.5513119886
 O      2.9165907973      0.0923511809     -0.0575227830
 H      2.4836169339      0.1086915709      0.8334546597
 H      3.3505146069      0.9679075416     -0.1418917542
6
# ORCA AIMD Position Step 88, t=44.00 fs, E_Pot=-401224.78760428 kJ mol^-1, Unit is Angstrom
 O     -0.0337871756      0.0632563893      0.0771980716
 H      0.7588174160     -0.0490271399     -0.4573268206
 H     -0.7585381556      0.1290569536     -0.5506575578
 O      2.9159626625      0.0924593573     -0.0570995446
 H      2.4971887562      0.1018625364      0.8255740412
 H      3.3470280346      0.9689769358     -0.1365940020
6
# ORCA AIMD Position Step 89, t=44.50 fs, E_Pot=-401225.42181310 kJ mol^-1, Unit is Angstrom
 O     -0.0334891825      0.0646064668      0.0771190434
 H      0.7554734194     -0.0533958046     -0.4605700761
 H     -0.7601254872      0.1161080634     -0.5503613394
 O      2.9153383787      0.0926371621     -0.0566264888
 H      2.5117419351      0.0953556494      0.8165812343
 H      3.3425850775      0.9685507937     -0.1309081742
6
# ORCA AIMD Position Step 90, t=45.00 fs, E_Pot=-401225.03963879 kJ mol^-1, Unit is Angstrom
 O     -0.0332248559      0.0659558925      0.0770835848
 H      0.7526375132     -0.0576612933     -0.4642548541
 H     -0.7617756017      0.1031369916     -0.5503705505
 O      2.9147574760      0.0928755888     -0.0561942940
 H      2.5264927284      0.0890955472      0.8080215768
 H      3.3373450099      0.9668450249     -0.1249515338
6
# ORCA AIMD Position Step 91, t=45.50 fs, E_Pot=-401223.84850469 kJ mol^-1, Unit is Angstrom
 O     -0.0329969543      0.0673051700      0.0770826432
 H      0.7503317049     -0.0618253400     -0.4683154230
 H     -0.7634694226      0.0901398908     -0.5505955745
 O      2.9142558874      0.0931577066     -0.0559000279
 H      2.5406338356      0.0829686163      0.8015640804
 H      3.3315474963      0.9642395583     -0.1188640966
6
# ORCA AIMD Position Step 92, t=46.00 fs, E_Pot=-401222.55186424 kJ mol^-1, Unit is Angstrom
 O     -0.0328060063      0.0686537810      0.0771021880
 H      0.7485115677     -0.0658760969     -0.4726359782
 H     -0.7651560272      0.0771155401     -0.5509176625
 O      2.9138592476      0.0934598727     -0.0558314071
 H      2.5534602279      0.0768317986      0.7987387295
 H      3.3254925921      0.9612503097     -0.1127954688
6
# ORCA AIMD Position Step 93, t=46.50 fs, E_Pot=-401221.95783345 kJ mol^-1, Unit is Angstrom
 O     -0.0326503955      0.0700000940      0.0771244193
 H      0.7470784784     -0.0697885883     -0.4770591592
 H     -0.7667634202      0.0640672779     -0.5511997976
 O      2.9135761074      0.0937535755     -0.0560474319
 H      2.5645065495      0.0705325243      0.8006136872
 H      3.3195109026      0.9584799667     -0.1068892175
6
# ORCA AIMD Position Step 94, t=47.00 fs, E_Pot=-401222.42611540 kJ mol^-1, Unit is Angstrom
 O     -0.0325267547      0.0713414525      0.0771294093
 H      0.7458987326     -0.0735270149     -0.4813997406
 H     -0.7682115830      0.0510039973     -0.5512991073
 O      2.9133942179      0.0940081371     -0.0565621175
 H      2.5736452604      0.0639375016      0.8075211934
 H      3.3139246254      0.9565462158     -0.1012669297
6
# ORCA AIMD Position Step 95, t=47.50 fs, E_Pot=-401223.62292100 kJ mol^-1, Unit is Angstrom
 O     -0.0324305609      0.0726744236      0.0770969568
 H      0.7448262378     -0.0770485498     -0.4854615646
 H     -0.7694260096      0.0379400328     -0.5510794328
 O      2.9132826174      0.0941944988     -0.0573390701
 H      2.5810979609      0.0569617904      0.8189584309
 H      3.3090033802      0.9559925409     -0.0960151230
6
# ORCA AIMD Position Step 96, t=48.00 fs, E_Pot=-401224.80187582 kJ mol^-1, Unit is Angstrom
 O     -0.0323568119      0.0739951701      0.0770084370
 H      0.7437254684     -0.0803080605     -0.4890555005
 H     -0.7703501886      0.0248939563     -0.5504228445
 O      2.9131994696      0.0942899098     -0.0582999514
 H      2.5873527528      0.0495865708      0.8337153886
 H      3.3049227148      0.9571960618     -0.0911786124
6
# ORCA AIMD Position Step 97, t=48.50 fs, E_Pot=-401225.31682283 kJ mol^-1, Unit is Angstrom
 O     -0.0323006734      0.0752998766      0.0768484006
 H      0.7424911024     -0.0832629637     -0.4920158752
 H     -0.7709552033      0.0118865580     -0.5492387570
 O      2.9131023852      0.0942824307     -0.0593425359
 H      2.5930287344      0.0418592246      0.8501631916
 H      3.3017360077      0.9602960853     -0.0867620995
6
# ORCA AIMD Position Step 98, t=49.00 fs, E_Pot=-401224.94238897 kJ mol^-1, Unit is Angstrom
 O     -0.0322580581      0.0765851886      0.0766058377
 H      0.7410633427     -0.0858777467     -0.4942143601
 H     -0.7712460126     -0.0010617308     -0.5474702836
 O      2.9129571267      0.0941739111     -0.0603602372
 H      2.5987455601      0.0338782669      0.8665730082
 H      3.2993669074      0.9651620382     -0.0827389615
6
# ORCA AIMD Position Step 99, t=49.50 fs, E_Pot=-401223.87678566 kJ mol^-1, Unit is Angstrom
 O     -0.0322260950      0.0778485997      0.0762749384
 H      0.7394368733     -0.0881275874     -0.4955696643
 H     -0.7712631707     -0.0139335003     -0.5450968326
 O      2.9127422936      0.0939802434     -0.0612571224
 H      2.6050332656      0.0257707087      0.8813675687
 H      3.2976253475      0.9714122128     -0.0790642455
6
# ORCA AIMD Position Step 100, t=50.00 fs, E_Pot=-401222.56472442 kJ mol^-1, Unit is Angstrom
 O     -0.0322034815      0.0790887523      0.0758553642
 H      0.7376637253     -0.0900008385     -0.4960528705
 H     -0.7710803212     -0.0267167606     -0.5421333078
 O      2.9124499486      0.0937288362     -0.0619565568
 H      2.6122880148      0.0176692337      0.8932719668
 H      3.2962420796      0.9784768091     -0.0756880307
6
# ORCA AIMD Position Step 101, t=50.50 fs, E_Pot=-401221.49890392 kJ mol^-1, Unit is Angstrom
 O     -0.0321906999      0.0803056157      0.0753520192
 H      0.7358501576     -0.0915001459     -0.4956880055
 H     -0.7707975398     -0.0394067114     -0.5386260374
 O      2.9120835883      0.0934542164     -0.0624047612
 H      2.6207607595      0.0096932239      0.9013810185
 H      3.2949121316      0.9856867630     -0.0725662035
6
# ORCA AIMD Position Step 102, t=51.00 fs, E_Pot=-401221.06640110 kJ mol^-1, Unit is Angstrom
 O     -0.0321900826      0.0815005139      0.0747743453
 H      0.7341477598     -0.0926420840     -0.4945477634
 H     -0.7705310241     -0.0520065787     -0.5346458747
 O      2.9116550739      0.0931930876     -0.0625715349
 H      2.6305631675      0.0019343658      0.9051776609
 H      3.2933371979      0.9923666181     -0.0696673608
6
# ORCA AIMD Position Step 103, t=51.50 fs, E_Pot=-401221.44465310 kJ mol^-1, Unit is Angstrom
 O     -0.0322056961      0.0826759780      0.0741351622
 H      0.7327387386     -0.0934552073     -0.4927442993
 H     -0.7703997121     -0.0645272393     -0.5302789190
 O      2.9111816616      0.0929799553     -0.0624500308
 H      2.6416797395     -0.0055544589      0.9045325191
 H      3.2912601653      0.9979150729     -0.0669760251
6
# ORCA AIMD Position Step 104, t=52.00 fs, E_Pot=-401222.54332620 kJ mol^-1, Unit is Angstrom
 O     -0.0322430238      0.0838354592      0.0734492691
 H      0.7318172993     -0.0939769235     -0.4904165581
 H     -0.7705112893     -0.0769857786     -0.5256168977
 O      2.9106836514      0.0928438832     -0.0620566788
 H      2.6539804149     -0.0127687664      0.8997029421
 H      3.2884894031      1.0018660624     -0.0644929911
6
# ORCA AIMD Position Step 105, t=52.50 fs, E_Pot=-401224.00552339 kJ mol^-1, Unit is Angstrom
 O     -0.0323084290      0.0849828687      0.0727317209
 H      0.7315663761     -0.0942488676     -0.4877134175
 H     -0.7709471439     -0.0894027653     -0.5207465178
 O      2.9101826736      0.0928064933     -0.0614314114
 H      2.6672331358     -0.0197615419      0.8913348200
 H      3.2849131035      1.0039295116     -0.0622337061
6
# ORCA AIMD Position Step 106, t=53.00 fs, E_Pot=-401225.29609104 kJ mol^-1, Unit is Angstrom
 O     -0.0324084380      0.0861220574      0.0719961887
 H      0.7321341645     -0.0943118423     -0.4847760872
 H     -0.7717501637     -0.1017989108     -0.5157408689
 O      2.9097003282      0.0928809682     -0.0606376162
 H      2.6811189105     -0.0266511758      0.8804586264
 H      3.2805057030      1.0040149682     -0.0602252430
6
# ORCA AIMD Position Step 107, t=53.50 fs, E_Pot=-401225.89681722 kJ mol^-1, Unit is Angstrom
 O     -0.0325489181      0.0872562945      0.0712535432
 H      0.7336126890     -0.0942008434     -0.4817214825
 H     -0.7729163645     -0.1141916023     -0.5106533458
 O      2.9092567147      0.0930716543     -0.0597603772
 H      2.6952548021     -0.0336254116      0.8684570472
 H      3.2753282354      1.0022416828     -0.0585020641
6
# ORCA AIMD Position Step 108, t=54.00 fs, E_Pot=-401225.57322937 kJ mol^-1, Unit is Angstrom
 O     -0.0327342760      0.0883878516      0.0705109255
 H      0.7360223592     -0.0939411407     -0.4786295306
 H     -0.7743921968     -0.1265920551     -0.5055153209
 O      2.9088684052      0.0933738364     -0.0589009137
 H      2.7092311814     -0.0409352820      0.8569708109
 H      3.2695232809      0.9989359618     -0.0571003829
6
# ORCA AIMD Position Step 109, t=54.50 fs, E_Pot=-401224.57601094 kJ mol^-1, Unit is Angstrom
 O     -0.0329668279      0.0895177641      0.0697714253
 H      0.7393052181     -0.0935460991     -0.4755363624
 H     -0.7760778488     -0.1390035993     -0.5003375506
 O      2.9085457087      0.0937733136     -0.0581652410
 H      2.7226662481     -0.0488708179      0.8477111560
 H      3.2633039230      0.9946134893     -0.0560509161
6
# ORCA AIMD Position Step 110, t=55.00 fs, E_Pot=-401223.57665988 kJ mol^-1, Unit is Angstrom
 O     -0.0332464635      0.0906458152      0.0690343897
 H      0.7433283105     -0.0930171259     -0.4724343538
 H     -0.7778359870     -0.1514213928     -0.4951147477
 O      2.9082897146      0.0942457185     -0.0576468793
 H      2.7352714538     -0.0577126089      0.8421766318
 H      3.2569352894      0.9899416258     -0.0553704061
6
# ORCA AIMD Position Step 111, t=55.50 fs, E_Pot=-401223.26855422 kJ mol^-1, Unit is Angstrom
 O     -0.0335706665      0.0917707490      0.0682962931
 H      0.7478969516     -0.0923457562     -0.4692788155
 H     -0.7795047553     -0.1638336819     -0.4898324678
 O      2.9080903898      0.0947561778     -0.0574071836
 H      2.7469089226     -0.0676634986      0.8413321410
 H      3.2507073938      0.9856764361     -0.0550531029
6
# ORCA AIMD Position Step 112, t=56.00 fs, E_Pot=-401223.88727961 kJ mol^-1, Unit is Angstrom
 O     -0.0339348684      0.0928906640      0.0675519636
 H      0.7527754323     -0.0915173528     -0.4659995614
 H     -0.7809129076     -0.1762243405     -0.4844748641
 O      2.9079272609      0.0952606667     -0.0574604956
 H      2.7576163462     -0.0787800534      0.8453664067
 H      3.2448994496      0.9825726696     -0.0550640423
6
# ORCA AIMD Position Step 113, t=56.50 fs, E_Pot=-401225.06410035 kJ mol^-1, Unit is Angstrom
 O     -0.0343330542      0.0940035307      0.0667959785
 H      0.7577122901     -0.0905157927     -0.4625153609
 H     -0.7818955224     -0.1885764477     -0.4790323627
 O      2.9077733716      0.0957104286     -0.0577711857
 H      2.7675850712     -0.0909324948      0.8536421372
 H      3.2397390293      0.9812735800     -0.0553361811
6
# ORCA AIMD Position Step 114, t=57.00 fs, E_Pot=-401226.12848487 kJ mol^-1, Unit is Angstrom
 O     -0.0347585021      0.0951077687      0.0660240448
 H      0.7624667132     -0.0893284606     -0.4587490860
 H     -0.7823088068     -0.2008765527     -0.4735085298
 O      2.9076014747      0.0960594164     -0.0582642132
 H      2.7770999621     -0.1038127314      0.8648663188
 H      3.2353640712      0.9822009545     -0.0557729743
6
# ORCA AIMD Position Step 115, t=57.50 fs, E_Pot=-401226.54917036 kJ mol^-1, Unit is Angstrom
 O     -0.0352045507      0.0962027427      0.0652340526
 H      0.7668313941     -0.0879504317     -0.4546404750
 H     -0.7820410412     -0.2131185071     -0.4679242617
 O      2.9073901356      0.0962727380     -0.0588437833
 H      2.7864682916     -0.1169855882      0.8773943279
 H      3.2317973688      0.9854724379     -0.0562561370
6
# ORCA AIMD Position Step 116, t=58.00 fs, E_Pot=-401226.17229253 kJ mol^-1, Unit is Angstrom
 O     -0.0356653203      0.0972891856      0.0644268525
 H      0.7706514562     -0.0863878255     -0.4501563897
 H     -0.7810204932     -0.2253069858     -0.4623201889
 O      2.9071276183      0.0963330073     -0.0594122802
 H      2.7959630734     -0.1299603136      0.8895419007
 H      3.2289420039      0.9908723923     -0.0566567729
6
# ORCA AIMD Position Step 117, t=58.50 fs, E_Pot=-401225.19857743 kJ mol^-1, Unit is Angstrom
 O     -0.0361363337      0.0983694443      0.0636065732
 H      0.7738367723     -0.0846596875     -0.4452968315
 H     -0.7792183935     -0.2374596536     -0.4567560853
 O      2.9068127317      0.0962424178     -0.0598841537
 H      2.8057916873     -0.1422581308      0.8998179114
 H      3.2265997982      0.9978866869     -0.0568473655
6
# ORCA AIMD Position Step 118, t=59.00 fs, E_Pot=-401224.03239975 kJ mol^-1, Unit is Angstrom
 O     -0.0366150153      0.0994475421      0.0627805350
 H      0.7763679489     -0.0827984404     -0.4400969486
 H     -0.7766474838     -0.2496078285     -0.4513078216
 O      2.9064531758      0.0960204256     -0.0601935727
 H      2.8160869936     -0.1534625308      0.9070568311
 H      3.2245069313      1.0057898848     -0.0567124281
6
# ORCA AIMD Position Step 119, t=59.50 fs, E_Pot=-401223.11902074 kJ mol^-1, Unit is Angstrom
 O     -0.0371010390      0.1005290395      0.0619587765
 H      0.7782958161     -0.0808488871     -0.4346250482
 H     -0.7733563192     -0.2617953425     -0.4460620909
 O      2.9060625731      0.0956986136     -0.0602973618
 H      2.8269123812     -0.1632511782      0.9104735777
 H      3.2223763456      1.0137587484     -0.0561564937
6
# ORCA AIMD Position Step 120, t=60.00 fs, E_Pot=-401222.80892679 kJ mol^-1, Unit is Angstrom
 O     -0.0375964910      0.1016206881      0.0611532407
 H      0.7797345036     -0.0788658275     -0.4289768403
 H     -0.7694199320     -0.2740754698     -0.4411093673
 O      2.9056572951      0.0953148080     -0.0601754091
 H      2.8382731086     -0.1714146504      0.9096751519
 H      3.2199369536      1.0209843874     -0.0551091499
