63
H2O at cage center; C60 from ASE molecule database; initial model, not experimental coordinates
O   0.000000000  0.000000000  0.000000000
H   0.758000000  0.000000000  0.586000000
H  -0.758000000  0.000000000  0.586000000
C   2.210195295  0.586663110  2.666950395
C   3.107639295  0.157700810  1.630028595
C   1.328442995 -0.315893890  3.236323195
C   3.090870895 -1.158500490  1.201423995
C   3.187924495 -1.457459890 -0.199700505
C   3.221462295  1.223096610  0.673943995
C   3.316120995  0.935158610 -0.676515105
C   3.298498095 -0.430114190 -1.120413805
C  -0.448084205  1.359148410  3.208101995
C   0.467205595  2.294983010  2.617526395
C  -0.025657505  0.076421910  3.508625895
C   1.772791695  1.917658410  2.352969095
C   2.395462295  2.309568910  1.118953895
C  -0.261019505  3.082093510  1.662311695
C   0.340772595  3.459238810  0.474596795
C   1.695117095  3.069244610  0.197662295
C  -2.125839405 -0.845885290  2.670096295
C  -2.562099005  0.485520210  2.353171495
C  -0.878152105 -1.046198490  3.236730195
C  -1.741509605  1.567996310  2.619733295
C  -1.626246805  2.635703010  1.664181095
C  -3.298481005  0.430187110  1.120420795
C  -3.187946905  1.457389510  0.199602995
C  -2.336026105  2.581362710  0.476091195
C  -0.500521005 -2.979777090  1.794030795
C  -1.794433805 -2.772908690  1.204789095
C  -0.051424505 -2.132884090  2.793882995
C  -2.589147105 -1.722582790  1.632971495
C  -3.316070505 -0.935063590  0.676526795
C  -1.695191905 -3.069258090 -0.197656405
C  -2.395490105 -2.309685290 -1.118986205
C  -3.221418205 -1.223183490 -0.673958105
C   2.175823395 -2.094626290  1.792252895
C   1.711861895 -2.974968090  0.755719795
C   1.313065595 -1.682941590  2.794389195
C   0.395902395 -3.405139490  0.755763795
C  -0.340821905 -3.459188290 -0.474561005
C   2.336005695 -2.581449890 -0.476105005
C   1.626375695 -2.635734890 -1.664230905
C   0.261135195 -3.082127090 -1.662261805
C  -2.210084405 -0.586863590 -2.667030005
C  -1.772697005 -1.917896890 -2.353046605
C  -0.467072305 -2.295050890 -2.617510505
C  -1.328350005  0.315768310 -3.236237505
C  -2.175988205  2.094538310 -1.792329405
C  -3.090966305  1.158347210 -1.201574905
C  -3.107609005 -0.157845290 -1.630162705
C  -1.313136505  1.682829210 -2.794363905
C   0.500322395  2.979963710 -1.794020305
C  -0.396114805  3.405281710 -0.755727205
C  -1.712062905  2.974912210 -0.755798805
C   0.051282395  2.132947810 -2.793745005
C   2.125862995  0.846080910 -2.670053405
C   2.589185295  1.722774210 -1.632956205
C   1.794300995  2.773068410 -1.204826205
C   0.878132295  1.046351410 -3.236531305
C   0.448245195 -1.359106090 -3.208051005
C   1.741694795 -1.567955690 -2.619771405
C   2.562172395 -0.485352890 -2.353202605
C   0.025790395 -0.076356690 -3.508444605
