3
# ORCA AIMD Position Step 0, t=0.00 fs, E_Pot=-13310.15391930 kJ mol^-1, Unit is Angstrom
 O     -0.0000000000      0.0000000000     -0.0735096940
 H      0.7603282370      0.0000000000      0.5410388492
 H     -0.7603282369      0.0000000000      0.5410388492
3
# ORCA AIMD Position Step 1, t=0.50 fs, E_Pot=-13311.01227758 kJ mol^-1, Unit is Angstrom
 O     -0.0000243039      0.0000000000     -0.0724660528
 H      0.7644565947      0.0000000000      0.5329123958
 H     -0.7640708428     -0.0000000000      0.5326006051
3
# ORCA AIMD Position Step 2, t=1.00 fs, E_Pot=-13311.84254398 kJ mol^-1, Unit is Angstrom
 O     -0.0000460512      0.0000000000     -0.0712531950
 H      0.7677781433     -0.0000000000      0.5234271902
 H     -0.7670472181      0.0000000000      0.5228353026
3
# ORCA AIMD Position Step 3, t=1.50 fs, E_Pot=-13312.45960413 kJ mol^-1, Unit is Angstrom
 O     -0.0000627488      0.0000000000     -0.0699180950
 H      0.7704326304     -0.0000000000      0.5129411080
 H     -0.7694366804      0.0000000000      0.5121306457
3
# ORCA AIMD Position Step 4, t=2.00 fs, E_Pot=-13312.70789746 kJ mol^-1, Unit is Angstrom
 O     -0.0000722050      0.0000000000     -0.0685169014
 H      0.7726658443     -0.0000000000      0.5018872221
 H     -0.7715198056      0.0000000000      0.5009447544
3
# ORCA AIMD Position Step 5, t=2.50 fs, E_Pot=-13312.52201126 kJ mol^-1, Unit is Angstrom
 O     -0.0000728377      0.0000000000     -0.0671110640
 H      0.7747998549     -0.0000000000      0.4907448063
 H     -0.7736437726      0.0000000000      0.4897736845
3
# ORCA AIMD Position Step 6, t=3.00 fs, E_Pot=-13311.95986989 kJ mol^-1, Unit is Angstrom
 O     -0.0000640183      0.0000000000     -0.0657624182
 H      0.7771884896      0.0000000000      0.4800020867
 H     -0.7761723897      0.0000000000      0.4791106657
3
# ORCA AIMD Position Step 7, t=3.50 fs, E_Pot=-13311.18556671 kJ mol^-1, Unit is Angstrom
 O     -0.0000463589      0.0000000000     -0.0645276382
 H      0.7801602222     -0.0000000000      0.4701134615
 H     -0.7794244122      0.0000000000      0.4694008338
3
# ORCA AIMD Position Step 8, t=4.00 fs, E_Pot=-13310.40056906 kJ mol^-1, Unit is Angstrom
 O     -0.0000218177      0.0000000000     -0.0634528651
 H      0.7839559645     -0.0000000000      0.4614569607
 H     -0.7836096732      0.0000000000      0.4609985105
3
# ORCA AIMD Position Step 9, t=4.50 fs, E_Pot=-13309.75449326 kJ mol^-1, Unit is Angstrom
 O      0.0000064874      0.0000000000     -0.0625695719
 H      0.7886743419     -0.0000000000      0.4542999518
 H     -0.7887773095      0.0000000000      0.4541358683
3
# ORCA AIMD Position Step 10, t=5.00 fs, E_Pot=-13309.28605498 kJ mol^-1, Unit is Angstrom
 O      0.0000347679      0.0000000000     -0.0618926041
 H      0.7942385260     -0.0000000000      0.4487806805
 H     -0.7947903634      0.0000000000      0.4489102910
3
# ORCA AIMD Position Step 11, t=5.50 fs, E_Pot=-13308.92949088 kJ mol^-1, Unit is Angstrom
 O      0.0000592366      0.0000000000     -0.0614208132
 H      0.8003946687     -0.0000000000      0.4449097333
 H     -0.8013348738      0.0000000000      0.4452929610
3
# ORCA AIMD Position Step 12, t=6.00 fs, E_Pot=-13308.57878020 kJ mol^-1, Unit is Angstrom
 O      0.0000767584      0.0000000000     -0.0611399467
 H      0.8067427592     -0.0000000000      0.4425898059
 H     -0.8079610704      0.0000000000      0.4431549696
3
# ORCA AIMD Position Step 13, t=6.50 fs, E_Pot=-13308.16599730 kJ mol^-1, Unit is Angstrom
 O      0.0000852998      0.0000000000     -0.0610268954
 H      0.8127913849     -0.0000000000      0.4416474256
 H     -0.8141452647      0.0000000000      0.4423029961
3
# ORCA AIMD Position Step 14, t=7.00 fs, E_Pot=-13307.70818943 kJ mol^-1, Unit is Angstrom
 O      0.0000841110      0.0000000000     -0.0610542843
 H      0.8180230456     -0.0000000000      0.4418687335
 H     -0.8193580576      0.0000000000      0.4425164064
3
# ORCA AIMD Position Step 15, t=7.50 fs, E_Pot=-13307.30376486 kJ mol^-1, Unit is Angstrom
 O      0.0000736504      0.0000000000     -0.0611945187
 H      0.8219563542     -0.0000000000      0.4430321791
 H     -0.8231253347      0.0000000000      0.4435787637
3
# ORCA AIMD Position Step 16, t=8.00 fs, E_Pot=-13307.08914937 kJ mol^-1, Unit is Angstrom
 O      0.0000553769      0.0000000000     -0.0614229503
 H      0.8241971412     -0.0000000000      0.4449347312
 H     -0.8250760848      0.0000000000      0.4453018838
3
# ORCA AIMD Position Step 17, t=8.50 fs, E_Pot=-13307.18092659 kJ mol^-1, Unit is Angstrom
 O      0.0000314893      0.0000000000     -0.0617200678
 H      0.8244749038     -0.0000000000      0.4474105167
 H     -0.8249747034      0.0000000000      0.4475419545
3
# ORCA AIMD Position Step 18, t=9.00 fs, E_Pot=-13307.62750302 kJ mol^-1, Unit is Angstrom
 O      0.0000046710      0.0000000000     -0.0620728456
 H      0.8226649966     -0.0000000000      0.4503427019
 H     -0.8227391346      0.0000000000      0.4502090672
3
# ORCA AIMD Position Step 19, t=9.50 fs, E_Pot=-13308.38567285 kJ mol^-1, Unit is Angstrom
 O     -0.0000221441      0.0000000000     -0.0624754103
 H      0.8187983164     -0.0000000000      0.4536698324
 H     -0.8184468443      0.0000000000      0.4532714522
3
# ORCA AIMD Position Step 20, t=10.00 fs, E_Pot=-13309.32820945 kJ mol^-1, Unit is Angstrom
 O     -0.0000459985      0.0000000000     -0.0629291058
 H      0.8130598429     -0.0000000000      0.4573873806
 H     -0.8123297539      0.0000000000      0.4567549702
3
# ORCA AIMD Position Step 21, t=10.50 fs, E_Pot=-13310.28052283 kJ mol^-1, Unit is Angstrom
 O     -0.0000641576      0.0000000000     -0.0634419195
 H      0.8057761584     -0.0000000000      0.4615443484
 H     -0.8047578472      0.0000000000      0.4607373934
3
# ORCA AIMD Position Step 22, t=11.00 fs, E_Pot=-13311.07623677 kJ mol^-1, Unit is Angstrom
 O     -0.0000743948      0.0000000000     -0.0640271219
 H      0.7973909270     -0.0000000000      0.4662339063
 H     -0.7962101306      0.0000000000      0.4653361818
3
# ORCA AIMD Position Step 23, t=11.50 fs, E_Pot=-13311.61286739 kJ mol^-1, Unit is Angstrom
 O     -0.0000753036      0.0000000000     -0.0647009404
 H      0.7884271017     -0.0000000000      0.4715766257
 H     -0.7872318815      0.0000000000      0.4706883272
3
# ORCA AIMD Position Step 24, t=12.00 fs, E_Pot=-13311.88325196 kJ mol^-1, Unit is Angstrom
 O     -0.0000665859      0.0000000000     -0.0654791929
 H      0.7794362383     -0.0000000000      0.4776954936
 H     -0.7783793848      0.0000000000      0.4769219000
3
# ORCA AIMD Position Step 25, t=12.50 fs, E_Pot=-13311.96335540 kJ mol^-1, Unit is Angstrom
 O     -0.0000492260      0.0000000000     -0.0663730856
 H      0.7709388037     -0.0000000000      0.4846838692
 H     -0.7701574870      0.0000000000      0.4841214106
3
# ORCA AIMD Position Step 26, t=13.00 fs, E_Pot=-13311.95724056 kJ mol^-1, Unit is Angstrom
 O     -0.0000254486      0.0000000000     -0.0673847909
 H      0.7633638894     -0.0000000000      0.4925706263
 H     -0.7629599689      0.0000000000      0.4922924651
3
# ORCA AIMD Position Step 27, t=13.50 fs, E_Pot=-13311.92762718 kJ mol^-1, Unit is Angstrom
 O      0.0000015896      0.0000000000     -0.0685037802
 H      0.7570001513     -0.0000000000      0.5012897798
 H     -0.7570253813      0.0000000000      0.5013339355
3
# ORCA AIMD Position Step 28, t=14.00 fs, E_Pot=-13311.85475366 kJ mol^-1, Unit is Angstrom
 O      0.0000283288      0.0000000000     -0.0697049632
 H      0.7519694359     -0.0000000000      0.5106629839
 H     -0.7524190720      0.0000000000      0.5110259379
3
# ORCA AIMD Position Step 29, t=14.50 fs, E_Pot=-13311.65060188 kJ mol^-1, Unit is Angstrom
 O      0.0000514138      0.0000000000     -0.0709493145
 H      0.7482293097     -0.0000000000      0.5204009662
 H     -0.7490453503      0.0000000000      0.5210383281
3
# ORCA AIMD Position Step 30, t=15.00 fs, E_Pot=-13311.21861537 kJ mol^-1, Unit is Angstrom
 O      0.0000682026      0.0000000000     -0.0721869572
 H      0.7456024612     -0.0000000000      0.5301247150
 H     -0.7466849746      0.0000000000      0.5309584747
3
# ORCA AIMD Position Step 31, t=15.50 fs, E_Pot=-13310.52039628 kJ mol^-1, Unit is Angstrom
 O      0.0000770630      0.0000000000     -0.0733619910
 H      0.7438238603     -0.0000000000      0.5394015807
 H     -0.7450470057      0.0000000000      0.5403317729
3
# ORCA AIMD Position Step 32, t=16.00 fs, E_Pot=-13309.61145707 kJ mol^-1, Unit is Angstrom
 O      0.0000774335      0.0000000000     -0.0744179902
 H      0.7425936616     -0.0000000000      0.5477881131
 H     -0.7438226883      0.0000000000      0.5487060851
3
# ORCA AIMD Position Step 33, t=16.50 fs, E_Pot=-13308.63166451 kJ mol^-1, Unit is Angstrom
 O      0.0000697130      0.0000000000     -0.0753031880
 H      0.7416256596     -0.0000000000      0.5548715756
 H     -0.7427321453      0.0000000000      0.5556725027
3
# ORCA AIMD Position Step 34, t=17.00 fs, E_Pot=-13307.76098271 kJ mol^-1, Unit is Angstrom
 O      0.0000550654      0.0000000000     -0.0759747162
 H      0.7406854232     -0.0000000000      0.5603046516
 H     -0.7415594226      0.0000000000      0.5608979388
3
# ORCA AIMD Position Step 35, t=17.50 fs, E_Pot=-13307.16295862 kJ mol^-1, Unit is Angstrom
 O      0.0000352146      0.0000000000     -0.0764016708
 H      0.7396164776     -0.0000000000      0.5638310355
 H     -0.7401754040      0.0000000000      0.5641481883
3
# ORCA AIMD Position Step 36, t=18.00 fs, E_Pot=-13306.93698560 kJ mol^-1, Unit is Angstrom
 O      0.0000122644      0.0000000000     -0.0765670403
 H      0.7383555438     -0.0000000000      0.5653019285
 H     -0.7385502049      0.0000000000      0.5653020433
3
# ORCA AIMD Position Step 37, t=18.50 fs, E_Pot=-13307.09288175 kJ mol^-1, Unit is Angstrom
 O     -0.0000114443      0.0000000000     -0.0764686252
 H      0.7369385725     -0.0000000000      0.5646843209
 H     -0.7367569287      0.0000000000      0.5643576048
3
# ORCA AIMD Position Step 38, t=19.00 fs, E_Pot=-13307.55342744 kJ mol^-1, Unit is Angstrom
 O     -0.0000334853      0.0000000000     -0.0761190752
 H      0.7354993481     -0.0000000000      0.5620624642
 H     -0.7349678693      0.0000000000      0.5614313958
3
# ORCA AIMD Position Step 39, t=19.50 fs, E_Pot=-13308.18400776 kJ mol^-1, Unit is Angstrom
 O     -0.0000514792      0.0000000000     -0.0755449511
 H      0.7342597954     -0.0000000000      0.5576313453
 H     -0.7334427159      0.0000000000      0.5567500025
3
# ORCA AIMD Position Step 40, t=20.00 fs, E_Pot=-13308.84146321 kJ mol^-1, Unit is Angstrom
 O     -0.0000632903      0.0000000000     -0.0747847559
 H      0.7335120249     -0.0000000000      0.5516825074
 H     -0.7325074801      0.0000000000      0.5506330038
3
# ORCA AIMD Position Step 41, t=20.50 fs, E_Pot=-13309.42658681 kJ mol^-1, Unit is Angstrom
 O     -0.0000672704      0.0000000000     -0.0738857475
 H      0.7335900587     -0.0000000000      0.5445804631
 H     -0.7325223409      0.0000000000      0.5434659654
3
# ORCA AIMD Position Step 42, t=21.00 fs, E_Pot=-13309.91821789 kJ mol^-1, Unit is Angstrom
 O     -0.0000625422      0.0000000000     -0.0728995176
 H      0.7348305729     -0.0000000000      0.5367294779
 H     -0.7338379010      0.0000000000      0.5356634863
3
# ORCA AIMD Position Step 43, t=21.50 fs, E_Pot=-13310.36852621 kJ mol^-1, Unit is Angstrom
 O     -0.0000492595      0.0000000000     -0.0718766359
 H      0.7375243240     -0.0000000000      0.5285326385
 H     -0.7367424756      0.0000000000      0.5276251230
3
# ORCA AIMD Position Step 44, t=22.00 fs, E_Pot=-13310.85508895 kJ mol^-1, Unit is Angstrom
 O     -0.0000287511      0.0000000000     -0.0708610952
 H      0.7418639003     -0.0000000000      0.5203483997
 H     -0.7414075623      0.0000000000      0.5196906760
3
# ORCA AIMD Position Step 45, t=22.50 fs, E_Pot=-13311.41224730 kJ mol^-1, Unit is Angstrom
 O     -0.0000034512      0.0000000000     -0.0698856529
 H      0.7478975212     -0.0000000000      0.5124527448
 H     -0.7478427435      0.0000000000      0.5121040878
3
# ORCA AIMD Position Step 46, t=23.00 fs, E_Pot=-13311.98377136 kJ mol^-1, Unit is Angstrom
 O      0.0000234242      0.0000000000     -0.0689691760
 H      0.7555003212     -0.0000000000      0.5050156564
 H     -0.7558721114      0.0000000000      0.5049948333
3
# ORCA AIMD Position Step 47, t=23.50 fs, E_Pot=-13312.43063629 kJ mol^-1, Unit is Angstrom
 O      0.0000483969      0.0000000000     -0.0681166447
 H      0.7643721287     -0.0000000000      0.4980976688
 H     -0.7651402850      0.0000000000      0.4983814227
3
# ORCA AIMD Position Step 48, t=24.00 fs, E_Pot=-13312.59241662 kJ mol^-1, Unit is Angstrom
 O      0.0000682977      0.0000000000     -0.0673216769
 H      0.7740638140     -0.0000000000      0.4916664297
 H     -0.7751478370      0.0000000000      0.4921949145
3
# ORCA AIMD Position Step 49, t=24.50 fs, E_Pot=-13312.36567589 kJ mol^-1, Unit is Angstrom
 O      0.0000807345      0.0000000000     -0.0665707279
 H      0.7840264288     -0.0000000000      0.4856274961
 H     -0.7853078484      0.0000000000      0.4863147675
3
# ORCA AIMD Position Step 50, t=25.00 fs, E_Pot=-13311.75524841 kJ mol^-1, Unit is Angstrom
 O      0.0000843564      0.0000000000     -0.0658478119
 H      0.7936720684     -0.0000000000      0.4798606689
 H     -0.7950109755      0.0000000000      0.4806074546
3
# ORCA AIMD Position Step 51, t=25.50 fs, E_Pot=-13310.87562046 kJ mol^-1, Unit is Angstrom
 O      0.0000789093      0.0000000000     -0.0651387601
 H      0.8024347635     -0.0000000000      0.4742539012
 H     -0.8036872133      0.0000000000      0.4749601363
3
# ORCA AIMD Position Step 52, t=26.00 fs, E_Pot=-13309.90859126 kJ mol^-1, Unit is Angstrom
 O      0.0000651380      0.0000000000     -0.0644344562
 H      0.8098228688     -0.0000000000      0.4687298773
 H     -0.8108567412      0.0000000000      0.4693054306
3
# ORCA AIMD Position Step 53, t=26.50 fs, E_Pot=-13309.04066920 kJ mol^-1, Unit is Angstrom
 O      0.0000446138      0.0000000000     -0.0637329181
 H      0.8154589026     -0.0000000000      0.4632637401
 H     -0.8161670132      0.0000000000      0.4636367389
3
# ORCA AIMD Position Step 54, t=27.00 fs, E_Pot=-13308.40528341 kJ mol^-1, Unit is Angstrom
 O      0.0000195421      0.0000000000     -0.0630403642
 H      0.8191063679     -0.0000000000      0.4578927188
 H     -0.8194165414      0.0000000000      0.4580155283
3
# ORCA AIMD Position Step 55, t=27.50 fs, E_Pot=-13308.04763446 kJ mol^-1, Unit is Angstrom
 O     -0.0000074225      0.0000000000     -0.0623714727
 H      0.8206847563     -0.0000000000      0.4527192322
 H     -0.8205669458      0.0000000000      0.4525723530
3
# ORCA AIMD Position Step 56, t=28.00 fs, E_Pot=-13307.92110854 kJ mol^-1, Unit is Angstrom
 O     -0.0000333654      0.0000000000     -0.0617489916
 H      0.8202738560     -0.0000000000      0.4479087626
 H     -0.8197442794      0.0000000000      0.4475027873
3
# ORCA AIMD Position Step 57, t=28.50 fs, E_Pot=-13307.91625241 kJ mol^-1, Unit is Angstrom
 O     -0.0000553275      0.0000000000     -0.0612027318
 H      0.8181072786     -0.0000000000      0.4436829126
 H     -0.8172291195      0.0000000000      0.4430583901
3
# ORCA AIMD Position Step 58, t=29.00 fs, E_Pot=-13307.91507580 kJ mol^-1, Unit is Angstrom
 O     -0.0000705812      0.0000000000     -0.0607678510
 H      0.8145536221     -0.0000000000      0.4403070697
 H     -0.8134333561      0.0000000000      0.4395317942
3
# ORCA AIMD Position Step 59, t=29.50 fs, E_Pot=-13307.85332050 kJ mol^-1, Unit is Angstrom
 O     -0.0000769769      0.0000000000     -0.0604822671
 H      0.8100828887     -0.0000000000      0.4380714876
 H     -0.8088611089      0.0000000000      0.4372345820
3
# ORCA AIMD Position Step 60, t=30.00 fs, E_Pot=-13307.76361404 kJ mol^-1, Unit is Angstrom
 O     -0.0000733327      0.0000000000     -0.0603830848
 H      0.8052166526     -0.0000000000      0.4372647375
 H     -0.8040527149      0.0000000000      0.4364671074
3
# ORCA AIMD Position Step 61, t=30.50 fs, E_Pot=-13307.77146688 kJ mol^-1, Unit is Angstrom
 O     -0.0000597763      0.0000000000     -0.0605021323
 H      0.8004638868     -0.0000000000      0.4381399351
 H     -0.7995151166      0.0000000000      0.4374814349
3
# ORCA AIMD Position Step 62, t=31.00 fs, E_Pot=-13308.03382887 kJ mol^-1, Unit is Angstrom
 O     -0.0000379079      0.0000000000     -0.0608610921
 H      0.7962502141     -0.0000000000      0.4408769771
 H     -0.7956485398      0.0000000000      0.4404418118
3
# ORCA AIMD Position Step 63, t=31.50 fs, E_Pot=-13308.64479670 kJ mol^-1, Unit is Angstrom
 O     -0.0000106451      0.0000000000     -0.0614670781
 H      0.7928533879     -0.0000000000      0.4455468495
 H     -0.7926844283      0.0000000000      0.4453901626
3
# ORCA AIMD Position Step 64, t=32.00 fs, E_Pot=-13309.56295937 kJ mol^-1, Unit is Angstrom
 O      0.0000182514      0.0000000000     -0.0623097899
 H      0.7903622435     -0.0000000000      0.4520869559
 H     -0.7906519310      0.0000000000      0.4522255983
3
# ORCA AIMD Position Step 65, t=32.50 fs, E_Pot=-13310.60913725 kJ mol^-1, Unit is Angstrom
 O      0.0000448788      0.0000000000     -0.0633610593
 H      0.7886697185     -0.0000000000      0.4602941714
 H     -0.7893820353      0.0000000000      0.4607041557
3
# ORCA AIMD Position Step 66, t=33.00 fs, E_Pot=-13311.53908332 kJ mol^-1, Unit is Angstrom
 O      0.0000658876      0.0000000000     -0.0645770456
 H      0.7875025986     -0.0000000000      0.4698387266
 H     -0.7885483690      0.0000000000      0.4704597646
3
# ORCA AIMD Position Step 67, t=33.50 fs, E_Pot=-13312.14699908 kJ mol^-1, Unit is Angstrom
 O      0.0000789708      0.0000000000     -0.0659025622
 H      0.7864787809     -0.0000000000      0.4802958151
 H     -0.7877322067      0.0000000000      0.4810413072
3
# ORCA AIMD Position Step 68, t=34.00 fs, E_Pot=-13312.34202702 kJ mol^-1, Unit is Angstrom
 O      0.0000830536      0.0000000000     -0.0672765257
 H      0.7851765663     -0.0000000000      0.4911874884
 H     -0.7864947955      0.0000000000      0.4919572153
3
# ORCA AIMD Position Step 69, t=34.50 fs, E_Pot=-13312.16532911 kJ mol^-1, Unit is Angstrom
 O      0.0000782261      0.0000000000     -0.0686374733
 H      0.7832008100     -0.0000000000      0.5020264224
 H     -0.7844424165      0.0000000000      0.5027192742
3
# ORCA AIMD Position Step 70, t=35.00 fs, E_Pot=-13311.75238627 kJ mol^-1, Unit is Angstrom
 O      0.0000655228      0.0000000000     -0.0699283912
 H      0.7802360683     -0.0000000000      0.5123551004
 H     -0.7812760486      0.0000000000      0.5128800749
3
# ORCA AIMD Position Step 71, t=35.50 fs, E_Pot=-13311.26754058 kJ mol^-1, Unit is Angstrom
 O      0.0000466609      0.0000000000     -0.0711005063
 H      0.7760832054     -0.0000000000      0.5217771346
 H     -0.7768238082      0.0000000000      0.5220618799
3
# ORCA AIMD Position Step 72, t=36.00 fs, E_Pot=-13310.84008422 kJ mol^-1, Unit is Angstrom
 O      0.0000238012      0.0000000000     -0.0721160149
 H      0.7706804293     -0.0000000000      0.5299801352
 H     -0.7710582032      0.0000000000      0.5299770564
3
# ORCA AIMD Position Step 73, t=36.50 fs, E_Pot=-13310.52229481 kJ mol^-1, Unit is Angstrom
 O     -0.0000006434      0.0000000000     -0.0729498692
 H      0.7641115663     -0.0000000000      0.5367509480
 H     -0.7641013548      0.0000000000      0.5364411985
3
# ORCA AIMD Position Step 74, t=37.00 fs, E_Pot=-13310.27931552 kJ mol^-1, Unit is Angstrom
 O     -0.0000241659      0.0000000000     -0.0735907380
 H      0.7566040926     -0.0000000000      0.5419842106
 H     -0.7562205308      0.0000000000      0.5413798204
3
# ORCA AIMD Position Step 75, t=37.50 fs, E_Pot=-13310.01243420 kJ mol^-1, Unit is Angstrom
 O     -0.0000443160      0.0000000000     -0.0740411503
 H      0.7485180294     -0.0000000000      0.5456844492
 H     -0.7478146442      0.0000000000      0.5448285377
3
# ORCA AIMD Position Step 76, t=38.00 fs, E_Pot=-13309.60995463 kJ mol^-1, Unit is Angstrom
 O     -0.0000588738      0.0000000000     -0.0743166841
 H      0.7403251558     -0.0000000000      0.5479608097
 H     -0.7393907095      0.0000000000      0.5469254556
3
# ORCA AIMD Position Step 77, t=38.50 fs, E_Pot=-13309.01109264 kJ mol^-1, Unit is Angstrom
 O     -0.0000660656      0.0000000000     -0.0744439502
 H      0.7325768463     -0.0000000000      0.5490125791
 H     -0.7315282509      0.0000000000      0.5478936566
3
# ORCA AIMD Position Step 78, t=39.00 fs, E_Pot=-13308.25855438 kJ mol^-1, Unit is Angstrom
 O     -0.0000648169      0.0000000000     -0.0744571413
 H      0.7258590156     -0.0000000000      0.5491036203
 H     -0.7248302400      0.0000000000      0.5480119850
3
# ORCA AIMD Position Step 79, t=39.50 fs, E_Pot=-13307.51067785 kJ mol^-1, Unit is Angstrom
 O     -0.0000549989      0.0000000000     -0.0743931354
 H      0.7207347103     -0.0000000000      0.5485253529
 H     -0.7198617659      0.0000000000      0.5475743490
3
# ORCA AIMD Position Step 80, t=40.00 fs, E_Pot=-13306.99418757 kJ mol^-1, Unit is Angstrom
 O     -0.0000375902      0.0000000000     -0.0742855981
 H      0.7176788631     -0.0000000000      0.5475512043
 H     -0.7170822312      0.0000000000      0.5468416629
3
# ORCA AIMD Position Step 81, t=40.50 fs, E_Pot=-13306.90817899 kJ mol^-1, Unit is Angstrom
 O     -0.0000146589      0.0000000000     -0.0741590956
 H      0.7170146843     -0.0000000000      0.5463898551
 H     -0.7167820185      0.0000000000      0.5459951621
3
# ORCA AIMD Position Step 82, t=41.00 fs, E_Pot=-13307.32544196 kJ mol^-1, Unit is Angstrom
 O      0.0000108882      0.0000000000     -0.0740246213
 H      0.7188647764     -0.0000000000      0.5451479873
 H     -0.7190375942      0.0000000000      0.5451026493
3
# ORCA AIMD Position Step 83, t=41.50 fs, E_Pot=-13308.14926749 kJ mol^-1, Unit is Angstrom
 O      0.0000357599      0.0000000000     -0.0738778082
 H      0.7231292939     -0.0000000000      0.5438128864
 H     -0.7236968758      0.0000000000      0.5441075306
3
# ORCA AIMD Position Step 84, t=42.00 fs, E_Pot=-13309.15414466 kJ mol^-1, Unit is Angstrom
 O      0.0000568262      0.0000000000     -0.0737003708
 H      0.7294973307     -0.0000000000      0.5422600134
 H     -0.7303992778      0.0000000000      0.5428441126
3
# ORCA AIMD Position Step 85, t=42.50 fs, E_Pot=-13310.08599293 kJ mol^-1, Unit is Angstrom
 O      0.0000715869      0.0000000000     -0.0734643116
 H      0.7374888614     -0.0000000000      0.5402832118
 H     -0.7386250906      0.0000000000      0.5410741768
3
# ORCA AIMD Position Step 86, t=43.00 fs, E_Pot=-13310.76393757 kJ mol^-1, Unit is Angstrom
 O      0.0000784653      0.0000000000     -0.0731376475
 H      0.7465164232     -0.0000000000      0.5376382767
 H     -0.7477618258      0.0000000000      0.5385342921
3
# ORCA AIMD Position Step 87, t=43.50 fs, E_Pot=-13311.13409671 kJ mol^-1, Unit is Angstrom
 O      0.0000768943      0.0000000000     -0.0726902442
 H      0.7559530694     -0.0000000000      0.5340889046
 H     -0.7571735384      0.0000000000      0.5349824671
3
# ORCA AIMD Position Step 88, t=44.00 fs, E_Pot=-13311.26108782 kJ mol^-1, Unit is Angstrom
 O      0.0000672441      0.0000000000     -0.0720987025
 H      0.7651951664     -0.0000000000      0.5294462242
 H     -0.7662624671      0.0000000000      0.5302361838
3
# ORCA AIMD Position Step 89, t=44.50 fs, E_Pot=-13311.27482742 kJ mol^-1, Unit is Angstrom
 O      0.0000506651      0.0000000000     -0.0713498148
 H      0.7737134683     -0.0000000000      0.5235974903
 H     -0.7745176264      0.0000000000      0.5241985539
3
# ORCA AIMD Position Step 90, t=45.00 fs, E_Pot=-13311.30262109 kJ mol^-1, Unit is Angstrom
 O      0.0000289126      0.0000000000     -0.0704425816
 H      0.7810906047     -0.0000000000      0.5165234185
 H     -0.7815495064      0.0000000000      0.5168729992
3
# ORCA AIMD Position Step 91, t=45.50 fs, E_Pot=-13311.41261949 kJ mol^-1, Unit is Angstrom
 O      0.0000041866      0.0000000000     -0.0693890267
 H      0.7870460882     -0.0000000000      0.5083058080
 H     -0.7871125381      0.0000000000      0.5083685618
3
# ORCA AIMD Position Step 92, t=46.00 fs, E_Pot=-13311.58473172 kJ mol^-1, Unit is Angstrom
 O     -0.0000210107     -0.0000000000     -0.0682140732
 H      0.7914507285     -0.0000000000      0.4991275367
 H     -0.7911172457      0.0000000000      0.4988979426
3
# ORCA AIMD Position Step 93, t=46.50 fs, E_Pot=-13311.71586544 kJ mol^-1, Unit is Angstrom
 O     -0.0000440191     -0.0000000000     -0.0669546416
 H      0.7943316115     -0.0000000000      0.4892663334
 H     -0.7936329387      0.0000000000      0.4887694175
3
# ORCA AIMD Position Step 94, t=47.00 fs, E_Pot=-13311.65883571 kJ mol^-1, Unit is Angstrom
 O     -0.0000622007     -0.0000000000     -0.0656579788
 H      0.7958671814     -0.0000000000      0.4790825764
 H     -0.7948799306      0.0000000000      0.4783725122
3
# ORCA AIMD Position Step 95, t=47.50 fs, E_Pot=-13311.28598317 kJ mol^-1, Unit is Angstrom
 O     -0.0000731873     -0.0000000000     -0.0643791103
 H      0.7963702468     -0.0000000000      0.4690004191
 H     -0.7952086167      0.0000000000      0.4681564386
3
# ORCA AIMD Position Step 96, t=48.00 fs, E_Pot=-13310.55772498 kJ mol^-1, Unit is Angstrom
 O     -0.0000752075     -0.0000000000     -0.0631772738
 H      0.7962557931     -0.0000000000      0.4594811404
 H     -0.7950620982      0.0000000000      0.4586001399
3
# ORCA AIMD Position Step 97, t=48.50 fs, E_Pot=-13309.56598975 kJ mol^-1, Unit is Angstrom
 O     -0.0000674602     -0.0000000000     -0.0621113100
 H      0.7959913928     -0.0000000000      0.4509883218
 H     -0.7949206634      0.0000000000      0.4501739547
3
# ORCA AIMD Position Step 98, t=49.00 fs, E_Pot=-13308.52250795 kJ mol^-1, Unit is Angstrom
 O     -0.0000504409     -0.0000000000     -0.0612342786
 H      0.7960316555     -0.0000000000      0.4439465050
 H     -0.7952310571      0.0000000000      0.4432955081
3
# ORCA AIMD Position Step 99, t=49.50 fs, E_Pot=-13307.68293407 kJ mol^-1, Unit is Angstrom
 O     -0.0000260791     -0.0000000000     -0.0605879802
 H      0.7967443799     -0.0000000000      0.4386980766
 H     -0.7963304512      0.0000000000      0.4382858728
3
# ORCA AIMD Position Step 100, t=50.00 fs, E_Pot=-13307.23682374 kJ mol^-1, Unit is Angstrom
 O      0.0000024401     -0.0000000000     -0.0601984118
 H      0.7983426960      0.0000000000      0.4354660296
 H     -0.7983814255      0.0000000000      0.4353346811
3
# ORCA AIMD Position Step 101, t=50.50 fs, E_Pot=-13307.22435072 kJ mol^-1, Unit is Angstrom
 O      0.0000311964     -0.0000000000     -0.0600732185
 H      0.8008404293      0.0000000000      0.4343310306
 H     -0.8013355799      0.0000000000      0.4344826094
3
# ORCA AIMD Position Step 102, t=51.00 fs, E_Pot=-13307.53128737 kJ mol^-1, Unit is Angstrom
 O      0.0000562575     -0.0000000000     -0.0602017854
 H      0.8040439619      0.0000000000      0.4352286341
 H     -0.8049368822      0.0000000000      0.4356256225
3
# ORCA AIMD Position Step 103, t=51.50 fs, E_Pot=-13307.96351579 kJ mol^-1, Unit is Angstrom
 O      0.0000744057     -0.0000000000     -0.0605578907
 H      0.8075831148      0.0000000000      0.4379668428
 H     -0.8087640845      0.0000000000      0.4385395259
3
# ORCA AIMD Position Step 104, t=52.00 fs, E_Pot=-13308.35134218 kJ mol^-1, Unit is Angstrom
 O      0.0000835957     -0.0000000000     -0.0611040976
 H      0.8109718221      0.0000000000      0.4422588995
 H     -0.8122986548      0.0000000000      0.4429168788
3
# ORCA AIMD Position Step 105, t=52.50 fs, E_Pot=-13308.62330586 kJ mol^-1, Unit is Angstrom
 O      0.0000831195     -0.0000000000     -0.0617968330
 H      0.8136821262      0.0000000000      0.4477627896
 H     -0.8150014011      0.0000000000      0.4484081002
3
# ORCA AIMD Position Step 106, t=53.00 fs, E_Pot=-13308.81875836 kJ mol^-1, Unit is Angstrom
 O      0.0000734991     -0.0000000000     -0.0625911817
 H      0.8152154058      0.0000000000      0.4541197525
 H     -0.8163819854      0.0000000000      0.4546590585
3
# ORCA AIMD Position Step 107, t=53.50 fs, E_Pot=-13309.04714807 kJ mol^-1, Unit is Angstrom
 O      0.0000562287     -0.0000000000     -0.0634448430
 H      0.8151603358      0.0000000000      0.4609868183
 H     -0.8160527990      0.0000000000      0.4613413267
3
# ORCA AIMD Position Step 108, t=54.00 fs, E_Pot=-13309.42308064 kJ mol^-1, Unit is Angstrom
 O      0.0000334786     -0.0000000000     -0.0643210870
 H      0.8132336897      0.0000000000      0.4680615972
 H     -0.8137650622      0.0000000000      0.4681743133
3
# ORCA AIMD Position Step 109, t=54.50 fs, E_Pot=-13310.00657860 kJ mol^-1, Unit is Angstrom
 O      0.0000078260     -0.0000000000     -0.0651907977
 H      0.8093048179      0.0000000000      0.4750997246
 H     -0.8094290317      0.0000000000      0.4749402546
3
# ORCA AIMD Position Step 110, t=55.00 fs, E_Pot=-13310.76795419 kJ mol^-1, Unit is Angstrom
 O     -0.0000179710     -0.0000000000     -0.0660337661
 H      0.8034065678      0.0000000000      0.4819261765
 H     -0.8031213324      0.0000000000      0.4814934172
3
# ORCA AIMD Position Step 111, t=55.50 fs, E_Pot=-13311.58598248 kJ mol^-1, Unit is Angstrom
 O     -0.0000411705     -0.0000000000     -0.0668393393
 H      0.7957349435      0.0000000000      0.4884413902
 H     -0.7950814851      0.0000000000      0.4877642803
3
# ORCA AIMD Position Step 112, t=56.00 fs, E_Pot=-13312.27960863 kJ mol^-1, Unit is Angstrom
 O     -0.0000592458     -0.0000000000     -0.0676064075
 H      0.7866384153      0.0000000000      0.4946222071
 H     -0.7856980651      0.0000000000      0.4937583876
3
# ORCA AIMD Position Step 113, t=56.50 fs, E_Pot=-13312.66567192 kJ mol^-1, Unit is Angstrom
 O     -0.0000701095     -0.0000000000     -0.0683425763
 H      0.7765961089      0.0000000000      0.5005165848
 H     -0.7754833289      0.0000000000      0.4995484997
3
# ORCA AIMD Position Step 114, t=57.00 fs, E_Pot=-13312.62605707 kJ mol^-1, Unit is Angstrom
 O     -0.0000723683     -0.0000000000     -0.0690622906
 H      0.7661832549      0.0000000000      0.5062302783
 H     -0.7650346235      0.0000000000      0.5052581275
3
# ORCA AIMD Position Step 115, t=57.50 fs, E_Pot=-13312.15891757 kJ mol^-1, Unit is Angstrom
 O     -0.0000655761     -0.0000000000     -0.0697837171
 H      0.7560229520      0.0000000000      0.5119038266
 H     -0.7549821272      0.0000000000      0.5110350777
3
# ORCA AIMD Position Step 116, t=58.00 fs, E_Pot=-13311.38709546 kJ mol^-1, Unit is Angstrom
 O     -0.0000504173     -0.0000000000     -0.0705244393
 H      0.7467260746      0.0000000000      0.5176798400
 H     -0.7459258506      0.0000000000      0.5170158260
3
# ORCA AIMD Position Step 117, t=58.50 fs, E_Pot=-13310.51109750 kJ mol^-1, Unit is Angstrom
 O     -0.0000287298     -0.0000000000     -0.0712964482
 H      0.7388256387      0.0000000000      0.5236638281
 H     -0.7383696387      0.0000000000      0.5232851805
3
# ORCA AIMD Position Step 118, t=59.00 fs, E_Pot=-13309.72363556 kJ mol^-1, Unit is Angstrom
 O     -0.0000032995     -0.0000000000     -0.0721013985
 H      0.7327164457      0.0000000000      0.5298856981
 H     -0.7326640762      0.0000000000      0.5298395017
3
# ORCA AIMD Position Step 119, t=59.50 fs, E_Pot=-13309.13043692 kJ mol^-1, Unit is Angstrom
 O      0.0000225674     -0.0000000000     -0.0729273678
 H      0.7286127277      0.0000000000      0.5362715849
 H     -0.7289709178      0.0000000000      0.5365634187
3
# ORCA AIMD Position Step 120, t=60.00 fs, E_Pot=-13308.72284443 kJ mol^-1, Unit is Angstrom
 O      0.0000455936     -0.0000000000     -0.0737481373
 H      0.7265336555      0.0000000000      0.5426346431
 H     -0.7272573183      0.0000000000      0.5432276340
3
# ORCA AIMD Position Step 121, t=60.50 fs, E_Pot=-13308.41510706 kJ mol^-1, Unit is Angstrom
 O      0.0000630471     -0.0000000000     -0.0745253196
 H      0.7263192803      0.0000000000      0.5486883763
 H     -0.7273199660      0.0000000000      0.5495093570
3
# ORCA AIMD Position Step 122, t=61.00 fs, E_Pot=-13308.11768985 kJ mol^-1, Unit is Angstrom
 O      0.0000730895     -0.0000000000     -0.0752127890
 H      0.7276710201      0.0000000000      0.5540792086
 H     -0.7288310977      0.0000000000      0.5550300550
3
# ORCA AIMD Position Step 123, t=61.50 fs, E_Pot=-13307.80028699 kJ mol^-1, Unit is Angstrom
 O      0.0000749058     -0.0000000000     -0.0757622905
 H      0.7302054871      0.0000000000      0.5584298687
 H     -0.7313943934      0.0000000000      0.5594010962
3
# ORCA AIMD Position Step 124, t=62.00 fs, E_Pot=-13307.51307730 kJ mol^-1, Unit is Angstrom
 O      0.0000686493     -0.0000000000     -0.0761290270
 H      0.7335098897      0.0000000000      0.5613839446
 H     -0.7345994929      0.0000000000      0.5622678695
3
# ORCA AIMD Position Step 125, t=62.50 fs, E_Pot=-13307.36363132 kJ mol^-1, Unit is Angstrom
 O      0.0000552778     -0.0000000000     -0.0762763610
 H      0.7371905538      0.0000000000      0.5626442655
 H     -0.7380679238      0.0000000000      0.5633460375
3
# ORCA AIMD Position Step 126, t=63.00 fs, E_Pot=-13307.46773314 kJ mol^-1, Unit is Angstrom
 O      0.0000363581     -0.0000000000     -0.0761792452
 H      0.7409106146      0.0000000000      0.5620014916
 H     -0.7414876917      0.0000000000      0.5624473874
3
# ORCA AIMD Position Step 127, t=63.50 fs, E_Pot=-13307.89765624 kJ mol^-1, Unit is Angstrom
 O      0.0000138860     -0.0000000000     -0.0758263657
 H      0.7444164817      0.0000000000      0.5593524384
 H     -0.7446368807      0.0000000000      0.5594955284
3
# ORCA AIMD Position Step 128, t=64.00 fs, E_Pot=-13308.64625433 kJ mol^-1, Unit is Angstrom
 O     -0.0000098656     -0.0000000000     -0.0752211627
 H      0.7475544502      0.0000000000      0.5547093090
 H     -0.7473978626      0.0000000000      0.5545328622
3
# ORCA AIMD Position Step 129, t=64.50 fs, E_Pot=-13309.61716979 kJ mol^-1, Unit is Angstrom
 O     -0.0000324800     -0.0000000000     -0.0743818888
 H      0.7502788927      0.0000000000      0.5482011561
 H     -0.7497633695      0.0000000000      0.5477200403
3
# ORCA AIMD Position Step 130, t=65.00 fs, E_Pot=-13310.64421605 kJ mol^-1, Unit is Angstrom
 O     -0.0000515378     -0.0000000000     -0.0733407721
 H      0.7526526117      0.0000000000      0.5400682712
 H     -0.7518346027      0.0000000000      0.5393282953
3
# ORCA AIMD Position Step 131, t=65.50 fs, E_Pot=-13311.53626392 kJ mol^-1, Unit is Angstrom
 O     -0.0000647958     -0.0000000000     -0.0721422246
 H      0.7548386004      0.0000000000      0.5306491985
 H     -0.7538101605      0.0000000000      0.5297239933
3
# ORCA AIMD Position Step 132, t=66.00 fs, E_Pot=-13312.13608717 kJ mol^-1, Unit is Angstrom
 O     -0.0000704235     -0.0000000000     -0.0708399674
 H      0.7570813371      0.0000000000      0.5203594357
 H     -0.7559635739      0.0000000000      0.5193442991
3
# ORCA AIMD Position Step 133, t=66.50 fs, E_Pot=-13312.37304506 kJ mol^-1, Unit is Angstrom
 O     -0.0000672925     -0.0000000000     -0.0694930004
 H      0.7596756862      0.0000000000      0.5096611604
 H     -0.7586076174      0.0000000000      0.5086634823
3
# ORCA AIMD Position Step 134, t=67.00 fs, E_Pot=-13312.28511548 kJ mol^-1, Unit is Angstrom
 O     -0.0000552712     -0.0000000000     -0.0681605653
 H      0.7629230337      0.0000000000      0.4990248147
 H     -0.7620457686      0.0000000000      0.4981513869
3
# ORCA AIMD Position Step 135, t=67.50 fs, E_Pot=-13311.99354788 kJ mol^-1, Unit is Angstrom
 O     -0.0000354317     -0.0000000000     -0.0668966192
 H      0.7670778690      0.0000000000      0.4888860841
 H     -0.7665154964      0.0000000000      0.4882287335
3
# ORCA AIMD Position Step 136, t=68.00 fs, E_Pot=-13311.63659006 kJ mol^-1, Unit is Angstrom
 O     -0.0000100584     -0.0000000000     -0.0657447161
 H      0.7722928640      0.0000000000      0.4796048240
 H     -0.7721332172      0.0000000000      0.4792269614
3
# ORCA AIMD Position Step 137, t=68.50 fs, E_Pot=-13311.29652914 kJ mol^-1, Unit is Angstrom
 O      0.0000176183     -0.0000000000     -0.0647343691
 H      0.7785744315      0.0000000000      0.4714341837
 H     -0.7788540704      0.0000000000      0.4713613491
3
# ORCA AIMD Position Step 138, t=69.00 fs, E_Pot=-13310.96400328 kJ mol^-1, Unit is Angstrom
 O      0.0000439384     -0.0000000000     -0.0638797201
 H      0.7857608152      0.0000000000      0.4645068702
 H     -0.7864582065      0.0000000000      0.4647236535
3
# ORCA AIMD Position Step 139, t=69.50 fs, E_Pot=-13310.56151809 kJ mol^-1, Unit is Angstrom
 O      0.0000654428     -0.0000000000     -0.0631807485
 H      0.7935299251      0.0000000000      0.4588412505
 H     -0.7945686346      0.0000000000      0.4592951794
3
# ORCA AIMD Position Step 140, t=70.00 fs, E_Pot=-13310.00864130 kJ mol^-1, Unit is Angstrom
 O      0.0000794358     -0.0000000000     -0.0626265055
 H      0.8014354522      0.0000000000      0.4543642307
 H     -0.8026962599      0.0000000000      0.4549752409
3
# ORCA AIMD Position Step 141, t=70.50 fs, E_Pot=-13309.28634034 kJ mol^-1, Unit is Angstrom
 O      0.0000843379     -0.0000000000     -0.0621994019
 H      0.8089621214      0.0000000000      0.4509437893
 H     -0.8103007345      0.0000000000      0.4516166836
3
# ORCA AIMD Position Step 142, t=71.00 fs, E_Pot=-13308.46448934 kJ mol^-1, Unit is Angstrom
 O      0.0000797872     -0.0000000000     -0.0618795393
 H      0.8155875025      0.0000000000      0.4484231896
 H     -0.8168538871      0.0000000000      0.4490604171
3
# ORCA AIMD Position Step 143, t=71.50 fs, E_Pot=-13307.68335682 kJ mol^-1, Unit is Angstrom
 O      0.0000665412     -0.0000000000     -0.0616483680
 H      0.8208391840      0.0000000000      0.4466507893
 H     -0.8218953279      0.0000000000      0.4471636611
3
# ORCA AIMD Position Step 144, t=72.00 fs, E_Pot=-13307.10409896 kJ mol^-1, Unit is Angstrom
 O      0.0000462660     -0.0000000000     -0.0614913830
 H      0.8243407076      0.0000000000      0.4455026512
 H     -0.8250750426      0.0000000000      0.4458201292
3
# ORCA AIMD Position Step 145, t=72.50 fs, E_Pot=-13306.85263453 kJ mol^-1, Unit is Angstrom
 O      0.0000212905     -0.0000000000     -0.0613998455
 H      0.8258437250      0.0000000000      0.4448974804
 H     -0.8261816480      0.0000000000      0.4449724152
3
# ORCA AIMD Position Step 146, t=73.00 fs, E_Pot=-13306.97784588 kJ mol^-1, Unit is Angstrom
 O     -0.0000056316     -0.0000000000     -0.0613716971
 H      0.8252470596      0.0000000000      0.4448050268
 H     -0.8251576741      0.0000000000      0.4446180966
3
# ORCA AIMD Position Step 147, t=73.50 fs, E_Pot=-13307.43655730 kJ mol^-1, Unit is Angstrom
 O     -0.0000315480     -0.0000000000     -0.0614118169
 H      0.8226040472      0.0000000000      0.4452491699
 H     -0.8221033172      0.0000000000      0.4448107364
3
# ORCA AIMD Position Step 148, t=74.00 fs, E_Pot=-13308.10921888 kJ mol^-1, Unit is Angstrom
 O     -0.0000535396     -0.0000000000     -0.0615316813
 H      0.8181188241      0.0000000000      0.4463062644
 H     -0.8172690427      0.0000000000      0.4456561314
3
# ORCA AIMD Position Step 149, t=74.50 fs, E_Pot=-13308.84221562 kJ mol^-1, Unit is Angstrom
 O     -0.0000689859     -0.0000000000     -0.0617483676
 H      0.8121311554      0.0000000000      0.4480984585
 H     -0.8110362101      0.0000000000      0.4473031881
3
# ORCA AIMD Position Step 150, t=75.00 fs, E_Pot=-13309.50406719 kJ mol^-1, Unit is Angstrom
 O     -0.0000758731     -0.0000000000     -0.0620827505
 H      0.8050882605      0.0000000000      0.4507808615
 H     -0.8038840013      0.0000000000      0.4499281180
3
# ORCA AIMD Position Step 151, t=75.50 fs, E_Pot=-13310.03413692 kJ mol^-1, Unit is Angstrom
 O     -0.0000731146     -0.0000000000     -0.0625567561
 H      0.7975028204      0.0000000000      0.4545213671
 H     -0.7963423433      0.0000000000      0.4537110403
3
# ORCA AIMD Position Step 152, t=76.00 fs, E_Pot=-13310.45915706 kJ mol^-1, Unit is Angstrom
 O     -0.0000608385     -0.0000000000     -0.0631896146
 H      0.7898976887      0.0000000000      0.4594725562
 H     -0.7889320591      0.0000000000      0.4588045967
3
# ORCA AIMD Position Step 153, t=76.50 fs, E_Pot=-13310.86279994 kJ mol^-1, Unit is Angstrom
 O     -0.0000405073     -0.0000000000     -0.0639935061
 H      0.7827435267      0.0000000000      0.4657380528
 H     -0.7821005943      0.0000000000      0.4652984846
3
# ORCA AIMD Position Step 154, t=77.00 fs, E_Pot=-13311.31869624 kJ mol^-1, Unit is Angstrom
 O     -0.0000147892     -0.0000000000     -0.0649692537
 H      0.7763990970      0.0000000000      0.4733380796
 H     -0.7761643629      0.0000000000      0.4731855477
3
# ORCA AIMD Position Step 155, t=77.50 fs, E_Pot=-13311.82454456 kJ mol^-1, Unit is Angstrom
 O      0.0000128538     -0.0000000000     -0.0661031044
 H      0.7710675166      0.0000000000      0.4821821106
 H     -0.7712715331      0.0000000000      0.4823380222
3
# ORCA AIMD Position Step 156, t=78.00 fs, E_Pot=-13312.28072998 kJ mol^-1, Unit is Angstrom
 O      0.0000387728     -0.0000000000     -0.0673655619
 H      0.7667796211      0.0000000000      0.4920565438
 H     -0.7673950244      0.0000000000      0.4925013444
3
# ORCA AIMD Position Step 157, t=78.50 fs, E_Pot=-13312.53011699 kJ mol^-1, Unit is Angstrom
 O      0.0000597576     -0.0000000000     -0.0687127608
 H      0.7634085457      0.0000000000      0.5026321050
 H     -0.7643570201      0.0000000000      0.5033085567
3
# ORCA AIMD Position Step 158, t=79.00 fs, E_Pot=-13312.43506905 kJ mol^-1, Unit is Angstrom
 O      0.0000735016     -0.0000000000     -0.0700901460
 H      0.7607104424      0.0000000000      0.5134901254
 H     -0.7618770616      0.0000000000      0.5143124268
3
# ORCA AIMD Position Step 159, t=79.50 fs, E_Pot=-13311.94606283 kJ mol^-1, Unit is Angstrom
 O      0.0000788146     -0.0000000000     -0.0714376155
 H      0.7583797229      0.0000000000      0.5241616933
 H     -0.7596306702      0.0000000000      0.5250279260
3
# ORCA AIMD Position Step 160, t=80.00 fs, E_Pot=-13311.12730276 kJ mol^-1, Unit is Angstrom
 O      0.0000755981     -0.0000000000     -0.0726950609
 H      0.7561057670      0.0000000000      0.5341713285
 H     -0.7573056625      0.0000000000      0.5349764942
3
# ORCA AIMD Position Step 161, t=80.50 fs, E_Pot=-13310.13361221 kJ mol^-1, Unit is Angstrom
 O      0.0000646693     -0.0000000000     -0.0738074170
 H      0.7536213477      0.0000000000      0.5430777681
 H     -0.7546477804      0.0000000000      0.5437253969
3
# ORCA AIMD Position Step 162, t=81.00 fs, E_Pot=-13309.15631621 kJ mol^-1, Unit is Angstrom
 O      0.0000475293     -0.0000000000     -0.0747287124
 H      0.7507381135      0.0000000000      0.5505073200
 H     -0.7514925000      0.0000000000      0.5509186675
3
# ORCA AIMD Position Step 163, t=81.50 fs, E_Pot=-13308.36328214 kJ mol^-1, Unit is Angstrom
 O      0.0000261435     -0.0000000000     -0.0754249781
 H      0.7473687310      0.0000000000      0.5561782235
 H     -0.7477836809      0.0000000000      0.5562989108
3
# ORCA AIMD Position Step 164, t=82.00 fs, E_Pot=-13307.85351584 kJ mol^-1, Unit is Angstrom
 O      0.0000027595     -0.0000000000     -0.0758760878
 H      0.7435375113      0.0000000000      0.5599163940
 H     -0.7435813104      0.0000000000      0.5597207634
3
# ORCA AIMD Position Step 165, t=82.50 fs, E_Pot=-13307.63787947 kJ mol^-1, Unit is Angstrom
 O     -0.0000202411     -0.0000000000     -0.0760766532
 H      0.7393816714      0.0000000000      0.5616635323
 H     -0.7390604047      0.0000000000      0.5611570038
3
# ORCA AIMD Position Step 166, t=83.00 fs, E_Pot=-13307.64949872 kJ mol^-1, Unit is Angstrom
 O     -0.0000404757     -0.0000000000     -0.0760360316
 H      0.7351443975      0.0000000000      0.5614780987
 H     -0.7345019658      0.0000000000      0.5606976912
3
# ORCA AIMD Position Step 167, t=83.50 fs, E_Pot=-13307.78059369 kJ mol^-1, Unit is Angstrom
 O     -0.0000557332     -0.0000000000     -0.0757773673
 H      0.7311597212      0.0000000000      0.5595290344
 H     -0.7302751223      0.0000000000      0.5585412294
3
# ORCA AIMD Position Step 168, t=84.00 fs, E_Pot=-13307.93506322 kJ mol^-1, Unit is Angstrom
 O     -0.0000641549     -0.0000000000     -0.0753355026
 H      0.7278277511      0.0000000000      0.5560804284
 H     -0.7268094836      0.0000000000      0.5549765478
3
# ORCA AIMD Position Step 169, t=84.50 fs, E_Pot=-13308.07789129 kJ mol^-1, Unit is Angstrom
 O     -0.0000644813     -0.0000000000     -0.0747535758
 H      0.7255790423      0.0000000000      0.5514663109
 H     -0.7245555939      0.0000000000      0.5503543092
3
# ORCA AIMD Position Step 170, t=85.00 fs, E_Pot=-13308.25712829 kJ mol^-1, Unit is Angstrom
 O     -0.0000563095     -0.0000000000     -0.0740783084
 H      0.7248278131      0.0000000000      0.5460550348
 H     -0.7239340672      0.0000000000      0.5450477262
3
# ORCA AIMD Position Step 171, t=85.50 fs, E_Pot=-13308.57976111 kJ mol^-1, Unit is Angstrom
 O     -0.0000402958     -0.0000000000     -0.0733543652
 H      0.7259169657      0.0000000000      0.5402058232
 H     -0.7252773903      0.0000000000      0.5394064935
3
# ORCA AIMD Position Step 172, t=86.00 fs, E_Pot=-13309.14451283 kJ mol^-1, Unit is Angstrom
 O     -0.0000182104     -0.0000000000     -0.0726186605
 H      0.7290622167      0.0000000000      0.5342237604
 H     -0.7287731809      0.0000000000      0.5337114338
3
# ORCA AIMD Position Step 173, t=86.50 fs, E_Pot=-13309.96460112 kJ mol^-1, Unit is Angstrom
 O      0.0000072308     -0.0000000000     -0.0718958441
 H      0.7343064714      0.0000000000      0.5283225413
 H     -0.7344212394      0.0000000000      0.5281400943
3
# ORCA AIMD Position Step 174, t=87.00 fs, E_Pot=-13310.92876411 kJ mol^-1, Unit is Angstrom
 O      0.0000327643     -0.0000000000     -0.0711961293
 H      0.7414961998      0.0000000000      0.5226043161
 H     -0.7420162353      0.0000000000      0.5227524282
3
# ORCA AIMD Position Step 175, t=87.50 fs, E_Pot=-13311.83024433 kJ mol^-1, Unit is Angstrom
 O      0.0000551132     -0.0000000000     -0.0705160363
 H      0.7502875330      0.0000000000      0.5170619500
 H     -0.7511622905      0.0000000000      0.5175003424
3
# ORCA AIMD Position Step 176, t=88.00 fs, E_Pot=-13312.45003222 kJ mol^-1, Unit is Angstrom
 O      0.0000715089     -0.0000000000     -0.0698417300
 H      0.7601817348      0.0000000000      0.5116022218
 H     -0.7613167266      0.0000000000      0.5122574657
3
# ORCA AIMD Position Step 177, t=88.50 fs, E_Pot=-13312.64688159 kJ mol^-1, Unit is Angstrom
 O      0.0000800636     -0.0000000000     -0.0691539045
 H      0.7705818697      0.0000000000      0.5060825128
 H     -0.7718526404      0.0000000000      0.5068599913
3
# ORCA AIMD Position Step 178, t=89.00 fs, E_Pot=-13312.40763124 kJ mol^-1, Unit is Angstrom
 O      0.0000799322     -0.0000000000     -0.0684329426
 H      0.7808582527      0.0000000000      0.5003511376
 H     -0.7821269378      0.0000000000      0.5011482418
3
# ORCA AIMD Position Step 179, t=89.50 fs, E_Pot=-13311.84016368 kJ mol^-1, Unit is Angstrom
 O      0.0000712902     -0.0000000000     -0.0676633474
 H      0.7904109897      0.0000000000      0.4942830499
 H     -0.7915425100      0.0000000000      0.4950012963
3
# ORCA AIMD Position Step 180, t=90.00 fs, E_Pot=-13311.12195855 kJ mol^-1, Unit is Angstrom
 O      0.0000551949     -0.0000000000     -0.0668369440
 H      0.7987220078      0.0000000000      0.4878064085
 H     -0.7995980620      0.0000000000      0.4883612432
3
# ORCA AIMD Position Step 181, t=90.50 fs, E_Pot=-13310.43179991 kJ mol^-1, Unit is Angstrom
 O      0.0000334019     -0.0000000000     -0.0659548008
 H      0.8053936855      0.0000000000      0.4809191239
 H     -0.8059238408      0.0000000000      0.4812471300
3
# ORCA AIMD Position Step 182, t=91.00 fs, E_Pot=-13309.89059380 kJ mol^-1, Unit is Angstrom
 O      0.0000081844     -0.0000000000     -0.0650280672
 H      0.8101744733      0.0000000000      0.4736966814
 H     -0.8103043765      0.0000000000      0.4737604357
3
# ORCA AIMD Position Step 183, t=91.50 fs, E_Pot=-13309.52827421 kJ mol^-1, Unit is Angstrom
 O     -0.0000178356     -0.0000000000     -0.0640779706
 H      0.8129731248      0.0000000000      0.4662931255
 H     -0.8126900376      0.0000000000      0.4660840354
3
# ORCA AIMD Position Step 184, t=92.00 fs, E_Pot=-13309.28457089 kJ mol^-1, Unit is Angstrom
 O     -0.0000418589     -0.0000000000     -0.0631351328
 H      0.8138626906      0.0000000000      0.4589365823
 H     -0.8131983049      0.0000000000      0.4584758348
3
# ORCA AIMD Position Step 185, t=92.50 fs, E_Pot=-13309.04366461 kJ mol^-1, Unit is Angstrom
 O     -0.0000611123     -0.0000000000     -0.0622382350
 H      0.8130739594      0.0000000000      0.4519197042
 H     -0.8121039839      0.0000000000      0.4512571292
3
# ORCA AIMD Position Step 186, t=93.00 fs, E_Pot=-13308.69441804 kJ mol^-1, Unit is Angstrom
 O     -0.0000731167     -0.0000000000     -0.0614319213
 H      0.8109762769      0.0000000000      0.4455843324
 H     -0.8098157669      0.0000000000      0.4447946715
3
# ORCA AIMD Position Step 187, t=93.50 fs, E_Pot=-13308.19702992 kJ mol^-1, Unit is Angstrom
 O     -0.0000760287     -0.0000000000     -0.0607637841
 H      0.8080428194      0.0000000000      0.4402991635
 H     -0.8068360907      0.0000000000      0.4394751496
3
# ORCA AIMD Position Step 188, t=94.00 fs, E_Pot=-13307.62645233 kJ mol^-1, Unit is Angstrom
 O     -0.0000690187     -0.0000000000     -0.0602803400
 H      0.8047983683      0.0000000000      0.4364295472
 H     -0.8037029012      0.0000000000      0.4356715294
3
# ORCA AIMD Position Step 189, t=94.50 fs, E_Pot=-13307.16231689 kJ mol^-1, Unit is Angstrom
 O     -0.0000525906     -0.0000000000     -0.0600221576
 H      0.8017513982      0.0000000000      0.4343002419
 H     -0.8009166792      0.0000000000      0.4337029579
3
# ORCA AIMD Position Step 190, t=95.00 fs, E_Pot=-13307.01552768 kJ mol^-1, Unit is Angstrom
 O     -0.0000286984     -0.0000000000     -0.0600186911
 H      0.7993186226      0.0000000000      0.4341549126
 H     -0.7988631211      0.0000000000      0.4337932677
3
# ORCA AIMD Position Step 191, t=95.50 fs, E_Pot=-13307.32086941 kJ mol^-1, Unit is Angstrom
 O     -0.0000005466     -0.0000000000     -0.0602837786
 H      0.7977568712      0.0000000000      0.4361194724
 H     -0.7977481962      0.0000000000      0.4360361827
3
# ORCA AIMD Position Step 192, t=96.00 fs, E_Pot=-13308.05673360 kJ mol^-1, Unit is Angstrom
 O      0.0000279689     -0.0000000000     -0.0608128712
 H      0.7971189636      0.0000000000      0.4401774208
 H     -0.7975628870      0.0000000000      0.4403760049
3
# ORCA AIMD Position Step 193, t=96.50 fs, E_Pot=-13309.04478861 kJ mol^-1, Unit is Angstrom
 O      0.0000529779     -0.0000000000     -0.0615828536
 H      0.7972481854      0.0000000000      0.4461650694
 H     -0.7980890516      0.0000000000      0.4466095353
3
# ORCA AIMD Position Step 194, t=97.00 fs, E_Pot=-13310.03112311 kJ mol^-1, Unit is Angstrom
 O      0.0000713347     -0.0000000000     -0.0625544932
 H      0.7978116081      0.0000000000      0.4537875349
 H     -0.7989438350      0.0000000000      0.4544089567
3
# ORCA AIMD Position Step 195, t=97.50 fs, E_Pot=-13310.79807581 kJ mol^-1, Unit is Angstrom
 O      0.0000810652     -0.0000000000     -0.0636769134
 H      0.7983628638     -0.0000000000      0.4626518864
 H     -0.7996495330      0.0000000000      0.4633596851
3
# ORCA AIMD Position Step 196, t=98.00 fs, E_Pot=-13311.24404268 kJ mol^-1, Unit is Angstrom
 O      0.0000814954     -0.0000000000     -0.0648930188
 H      0.7984171611     -0.0000000000      0.4723093036
 H     -0.7997106576      0.0000000000      0.4730043208
3
# ORCA AIMD Position Step 197, t=98.50 fs, E_Pot=-13311.39881488 kJ mol^-1, Unit is Angstrom
 O      0.0000731222     -0.0000000000     -0.0661448416
 H      0.7975222373     -0.0000000000      0.4822978755
 H     -0.7986828351      0.0000000000      0.4828847108
3
# ORCA AIMD Position Step 198, t=99.00 fs, E_Pot=-13311.38208664 kJ mol^-1, Unit is Angstrom
 O      0.0000573486     -0.0000000000     -0.0673781270
 H      0.7953149394     -0.0000000000      0.4921800973
 H     -0.7962251777      0.0000000000      0.4925772241
3
# ORCA AIMD Position Step 199, t=99.50 fs, E_Pot=-13311.33509886 kJ mol^-1, Unit is Angstrom
 O      0.0000361927     -0.0000000000     -0.0685458866
 H      0.7915600125     -0.0000000000      0.5015724126
 H     -0.7921344640      0.0000000000      0.5017196174
3
# ORCA AIMD Position Step 200, t=100.00 fs, E_Pot=-13311.35609632 kJ mol^-1, Unit is Angstrom
 O      0.0000120354     -0.0000000000     -0.0696109467
 H      0.7861724121     -0.0000000000      0.5101666748
 H     -0.7863634390      0.0000000000      0.5100300144
