3
# ORCA AIMD Velocity Step 0, t=0.00 fs, E_Pot=-13310.15391930 kJ mol^-1, Unit is Angstrom fs^-1
 O     -0.0000486078      0.0000000000      0.0020872824
 H      0.0082567156      0.0000000000     -0.0162529069
 H     -0.0074852117     -0.0000000000     -0.0168764883
3
# ORCA AIMD Velocity Step 1, t=0.50 fs, E_Pot=-13311.01227758 kJ mol^-1, Unit is Angstrom fs^-1
 O     -0.0000460512      0.0000000000      0.0022564990
 H      0.0074499064     -0.0000000000     -0.0176116590
 H     -0.0067189812      0.0000000000     -0.0182035466
3
# ORCA AIMD Velocity Step 2, t=1.00 fs, E_Pot=-13311.84254398 kJ mol^-1, Unit is Angstrom fs^-1
 O     -0.0000384449      0.0000000000      0.0025479578
 H      0.0059760357     -0.0000000000     -0.0199712879
 H     -0.0053658376      0.0000000000     -0.0204699594
3
# ORCA AIMD Velocity Step 3, t=1.50 fs, E_Pot=-13312.45960413 kJ mol^-1, Unit is Angstrom fs^-1
 O     -0.0000261538      0.0000000000      0.0027362936
 H      0.0048877010     -0.0000000000     -0.0215399682
 H     -0.0044725875      0.0000000000     -0.0218905482
3
# ORCA AIMD Velocity Step 4, t=2.00 fs, E_Pot=-13312.70789746 kJ mol^-1, Unit is Angstrom fs^-1
 O     -0.0000100890      0.0000000000      0.0028070310
 H      0.0043672245     -0.0000000000     -0.0221963017
 H     -0.0042070922      0.0000000000     -0.0223569612
3
# ORCA AIMD Velocity Step 5, t=2.50 fs, E_Pot=-13312.52201126 kJ mol^-1, Unit is Angstrom fs^-1
 O      0.0000081867     -0.0000000000      0.0027544833
 H      0.0045226453      0.0000000000     -0.0218851353
 H     -0.0046525841     -0.0000000000     -0.0218340887
3
# ORCA AIMD Velocity Step 6, t=3.00 fs, E_Pot=-13311.95986989 kJ mol^-1, Unit is Angstrom fs^-1
 O      0.0000264788      0.0000000000      0.0025834258
 H      0.0053603674      0.0000000000     -0.0206313448
 H     -0.0057806396      0.0000000000     -0.0203728507
3
# ORCA AIMD Velocity Step 7, t=3.50 fs, E_Pot=-13311.18556671 kJ mol^-1, Unit is Angstrom fs^-1
 O      0.0000422006      0.0000000000      0.0023095531
 H      0.0067674749     -0.0000000000     -0.0185451260
 H     -0.0074372836      0.0000000000     -0.0181121552
3
# ORCA AIMD Velocity Step 8, t=4.00 fs, E_Pot=-13310.40056906 kJ mol^-1, Unit is Angstrom fs^-1
 O      0.0000528463      0.0000000000      0.0019580663
 H      0.0085141196     -0.0000000000     -0.0158135096
 H     -0.0093528973      0.0000000000     -0.0152649654
3
# ORCA AIMD Velocity Step 9, t=4.50 fs, E_Pot=-13309.75449326 kJ mol^-1, Unit is Angstrom fs^-1
 O      0.0000565856      0.0000000000      0.0015602610
 H      0.0102825615     -0.0000000000     -0.0126762802
 H     -0.0111806902      0.0000000000     -0.0120882195
3
# ORCA AIMD Velocity Step 10, t=5.00 fs, E_Pot=-13309.28605498 kJ mol^-1, Unit is Angstrom fs^-1
 O      0.0000527493      0.0000000000      0.0011487587
 H      0.0117203268     -0.0000000000     -0.0093902185
 H     -0.0125575642      0.0000000000     -0.0088429073
3
# ORCA AIMD Velocity Step 11, t=5.50 fs, E_Pot=-13308.92949088 kJ mol^-1, Unit is Angstrom fs^-1
 O      0.0000419905      0.0000000000      0.0007526574
 H      0.0125042332     -0.0000000000     -0.0061908747
 H     -0.0131707070      0.0000000000     -0.0057553214
3
# ORCA AIMD Velocity Step 12, t=6.00 fs, E_Pot=-13308.57878020 kJ mol^-1, Unit is Angstrom fs^-1
 O      0.0000260631      0.0000000000      0.0003939178
 H      0.0123967162     -0.0000000000     -0.0032623077
 H     -0.0128103909      0.0000000000     -0.0029899650
3
# ORCA AIMD Velocity Step 13, t=6.50 fs, E_Pot=-13308.16599730 kJ mol^-1, Unit is Angstrom fs^-1
 O      0.0000073526      0.0000000000      0.0000856624
 H      0.0112802865     -0.0000000000     -0.0007210724
 H     -0.0113969872      0.0000000000     -0.0006385632
3
# ORCA AIMD Velocity Step 14, t=7.00 fs, E_Pot=-13307.70818943 kJ mol^-1, Unit is Angstrom fs^-1
 O     -0.0000116494      0.0000000000     -0.0001676233
 H      0.0091649693     -0.0000000000      0.0013847535
 H     -0.0089800700      0.0000000000      0.0012757676
3
# ORCA AIMD Velocity Step 15, t=7.50 fs, E_Pot=-13307.30376486 kJ mol^-1, Unit is Angstrom fs^-1
 O     -0.0000287341      0.0000000000     -0.0003686660
 H      0.0061740956     -0.0000000000      0.0030659977
 H     -0.0057180273      0.0000000000      0.0027854774
3
# ORCA AIMD Velocity Step 16, t=8.00 fs, E_Pot=-13307.08914937 kJ mol^-1, Unit is Angstrom fs^-1
 O     -0.0000421610      0.0000000000     -0.0005255491
 H      0.0025185496     -0.0000000000      0.0043783376
 H     -0.0018493686      0.0000000000      0.0039631908
3
# ORCA AIMD Velocity Step 17, t=8.50 fs, E_Pot=-13307.18092659 kJ mol^-1, Unit is Angstrom fs^-1
 O     -0.0000507059      0.0000000000     -0.0006498953
 H     -0.0015321447     -0.0000000000      0.0054079707
 H      0.0023369503      0.0000000000      0.0049071834
3
# ORCA AIMD Velocity Step 18, t=9.00 fs, E_Pot=-13307.62750302 kJ mol^-1, Unit is Angstrom fs^-1
 O     -0.0000536335      0.0000000000     -0.0007553425
 H     -0.0056765874     -0.0000000000      0.0062593157
 H      0.0065278590      0.0000000000      0.0057294977
3
# ORCA AIMD Velocity Step 19, t=9.50 fs, E_Pot=-13308.38567285 kJ mol^-1, Unit is Angstrom fs^-1
 O     -0.0000506695      0.0000000000     -0.0008562602
 H     -0.0096051537     -0.0000000000      0.0070446788
 H      0.0104093807      0.0000000000      0.0065459030
3
# ORCA AIMD Velocity Step 20, t=10.00 fs, E_Pot=-13309.32820945 kJ mol^-1, Unit is Angstrom fs^-1
 O     -0.0000420135      0.0000000000     -0.0009665092
 H     -0.0130221580     -0.0000000000      0.0078745160
 H      0.0136889971      0.0000000000      0.0074659412
3
# ORCA AIMD Velocity Step 21, t=10.50 fs, E_Pot=-13310.28052283 kJ mol^-1, Unit is Angstrom fs^-1
 O     -0.0000283963      0.0000000000     -0.0010980161
 H     -0.0156689159     -0.0000000000      0.0088465256
 H      0.0161196233      0.0000000000      0.0085812116
3
# ORCA AIMD Velocity Step 22, t=11.00 fs, E_Pot=-13311.07623677 kJ mol^-1, Unit is Angstrom fs^-1
 O     -0.0000111460      0.0000000000     -0.0012590210
 H     -0.0173490567     -0.0000000000      0.0100322773
 H      0.0175259657      0.0000000000      0.0099509337
3
# ORCA AIMD Velocity Step 23, t=11.50 fs, E_Pot=-13311.61286739 kJ mol^-1, Unit is Angstrom fs^-1
 O      0.0000078089      0.0000000000     -0.0014520710
 H     -0.0179546887     -0.0000000000      0.0114615873
 H      0.0178307458      0.0000000000      0.0115857182
3
# ORCA AIMD Velocity Step 24, t=12.00 fs, E_Pot=-13311.88325196 kJ mol^-1, Unit is Angstrom fs^-1
 O      0.0000260776      0.0000000000     -0.0016721451
 H     -0.0174882980     -0.0000000000      0.0131072435
 H      0.0170743945      0.0000000000      0.0134330834
3
# ORCA AIMD Velocity Step 25, t=12.50 fs, E_Pot=-13311.96335540 kJ mol^-1, Unit is Angstrom fs^-1
 O      0.0000411374      0.0000000000     -0.0019055981
 H     -0.0160723489     -0.0000000000      0.0148751327
 H      0.0154194159      0.0000000000      0.0153705651
3
# ORCA AIMD Velocity Step 26, t=13.00 fs, E_Pot=-13311.95724056 kJ mol^-1, Unit is Angstrom fs^-1
 O      0.0000508156      0.0000000000     -0.0021306946
 H     -0.0139386524     -0.0000000000      0.0166059106
 H      0.0131321058      0.0000000000      0.0172125250
3
# ORCA AIMD Velocity Step 27, t=13.50 fs, E_Pot=-13311.92762718 kJ mol^-1, Unit is Angstrom fs^-1
 O      0.0000537774      0.0000000000     -0.0023201723
 H     -0.0113944535     -0.0000000000      0.0180923576
 H      0.0105408969      0.0000000000      0.0187334728
3
# ORCA AIMD Velocity Step 28, t=14.00 fs, E_Pot=-13311.85475366 kJ mol^-1, Unit is Angstrom fs^-1
 O      0.0000498242      0.0000000000     -0.0024455343
 H     -0.0087708416     -0.0000000000      0.0191111865
 H      0.0079800310      0.0000000000      0.0197043925
3
# ORCA AIMD Velocity Step 29, t=14.50 fs, E_Pot=-13311.65060188 kJ mol^-1, Unit is Angstrom fs^-1
 O      0.0000398738      0.0000000000     -0.0024819940
 H     -0.0063669747     -0.0000000000      0.0194617311
 H      0.0057340975      0.0000000000      0.0199325368
3
# ORCA AIMD Velocity Step 30, t=15.00 fs, E_Pot=-13311.21861537 kJ mol^-1, Unit is Angstrom fs^-1
 O      0.0000256492      0.0000000000     -0.0024126765
 H     -0.0044054494     -0.0000000000      0.0190006144
 H      0.0039983446      0.0000000000      0.0192934448
3
# ORCA AIMD Velocity Step 31, t=15.50 fs, E_Pot=-13310.52039628 kJ mol^-1, Unit is Angstrom fs^-1
 O      0.0000092309      0.0000000000     -0.0022310330
 H     -0.0030087996     -0.0000000000      0.0176633981
 H      0.0028622863      0.0000000000      0.0177476104
3
# ORCA AIMD Velocity Step 32, t=16.00 fs, E_Pot=-13309.61145707 kJ mol^-1, Unit is Angstrom fs^-1
 O     -0.0000073500      0.0000000000     -0.0019411970
 H     -0.0021982007     -0.0000000000      0.0154699950
 H      0.0023148604      0.0000000000      0.0153407298
3
# ORCA AIMD Velocity Step 33, t=16.50 fs, E_Pot=-13308.63166451 kJ mol^-1, Unit is Angstrom fs^-1
 O     -0.0000223681      0.0000000000     -0.0015567260
 H     -0.0019082384     -0.0000000000      0.0125165385
 H      0.0022632657      0.0000000000      0.0121918537
3
# ORCA AIMD Velocity Step 34, t=17.00 fs, E_Pot=-13307.76098271 kJ mol^-1, Unit is Angstrom fs^-1
 O     -0.0000344984      0.0000000000     -0.0010984828
 H     -0.0020091820     -0.0000000000      0.0089594599
 H      0.0025567413      0.0000000000      0.0084756856
3
# ORCA AIMD Velocity Step 35, t=17.50 fs, E_Pot=-13307.16295862 kJ mol^-1, Unit is Angstrom fs^-1
 O     -0.0000428010      0.0000000000     -0.0005923240
 H     -0.0023298794     -0.0000000000      0.0049972769
 H      0.0030092176      0.0000000000      0.0044041045
3
# ORCA AIMD Velocity Step 36, t=18.00 fs, E_Pot=-13306.93698560 kJ mol^-1, Unit is Angstrom fs^-1
 O     -0.0000466588      0.0000000000     -0.0000669544
 H     -0.0026779051     -0.0000000000      0.0008532853
 H      0.0034184753      0.0000000000      0.0002094165
3
# ORCA AIMD Velocity Step 37, t=18.50 fs, E_Pot=-13307.09288175 kJ mol^-1, Unit is Angstrom fs^-1
 O     -0.0000457497      0.0000000000      0.0004479650
 H     -0.0028561957     -0.0000000000     -0.0032394643
 H      0.0035823356      0.0000000000     -0.0038706475
3
# ORCA AIMD Velocity Step 38, t=19.00 fs, E_Pot=-13307.55342744 kJ mol^-1, Unit is Angstrom fs^-1
 O     -0.0000400349      0.0000000000      0.0009236741
 H     -0.0026787772     -0.0000000000     -0.0070529755
 H      0.0033142128      0.0000000000     -0.0076076024
3
# ORCA AIMD Velocity Step 39, t=19.50 fs, E_Pot=-13308.18400776 kJ mol^-1, Unit is Angstrom fs^-1
 O     -0.0000298050      0.0000000000      0.0013343194
 H     -0.0019873232     -0.0000000000     -0.0103799568
 H      0.0024603892      0.0000000000     -0.0107983920
3
# ORCA AIMD Velocity Step 40, t=20.00 fs, E_Pot=-13308.84146321 kJ mol^-1, Unit is Angstrom fs^-1
 O     -0.0000157912      0.0000000000      0.0016592036
 H     -0.0006697366     -0.0000000000     -0.0130508822
 H      0.0009203750      0.0000000000     -0.0132840371
3
# ORCA AIMD Velocity Step 41, t=20.50 fs, E_Pot=-13309.42658681 kJ mol^-1, Unit is Angstrom fs^-1
 O      0.0000007480      0.0000000000      0.0018852383
 H      0.0013185480     -0.0000000000     -0.0149530296
 H     -0.0013304209      0.0000000000     -0.0149695175
3
# ORCA AIMD Velocity Step 42, t=21.00 fs, E_Pot=-13309.91821789 kJ mol^-1, Unit is Angstrom fs^-1
 O      0.0000180109      0.0000000000      0.0020091116
 H      0.0039342652     -0.0000000000     -0.0160478246
 H     -0.0042201347      0.0000000000     -0.0158408424
3
# ORCA AIMD Velocity Step 43, t=21.50 fs, E_Pot=-13310.36852621 kJ mol^-1, Unit is Angstrom fs^-1
 O      0.0000337911      0.0000000000      0.0020384224
 H      0.0070333274     -0.0000000000     -0.0163810782
 H     -0.0075696613      0.0000000000     -0.0159728103
3
# ORCA AIMD Velocity Step 44, t=22.00 fs, E_Pot=-13310.85508895 kJ mol^-1, Unit is Angstrom fs^-1
 O      0.0000458083      0.0000000000      0.0019909830
 H      0.0103731972     -0.0000000000     -0.0160798937
 H     -0.0111002678      0.0000000000     -0.0155210352
3
# ORCA AIMD Velocity Step 45, t=22.50 fs, E_Pot=-13311.41224730 kJ mol^-1, Unit is Angstrom fs^-1
 O      0.0000521753      0.0000000000      0.0018919192
 H      0.0136364209     -0.0000000000     -0.0153327433
 H     -0.0144645491      0.0000000000     -0.0146958427
3
# ORCA AIMD Velocity Step 46, t=23.00 fs, E_Pot=-13311.98377136 kJ mol^-1, Unit is Angstrom fs^-1
 O      0.0000518481      0.0000000000      0.0017690083
 H      0.0164746075     -0.0000000000     -0.0143550760
 H     -0.0172975415      0.0000000000     -0.0137226651
3
# ORCA AIMD Velocity Step 47, t=23.50 fs, E_Pot=-13312.43063629 kJ mol^-1, Unit is Angstrom fs^-1
 O      0.0000448735      0.0000000000      0.0016474991
 H      0.0185634928     -0.0000000000     -0.0133492266
 H     -0.0192757256      0.0000000000     -0.0127999188
3
# ORCA AIMD Velocity Step 48, t=24.00 fs, E_Pot=-13312.59241662 kJ mol^-1, Unit is Angstrom fs^-1
 O      0.0000323376      0.0000000000      0.0015459168
 H      0.0196543001     -0.0000000000     -0.0124701727
 H     -0.0201675635      0.0000000000     -0.0120666552
3
# ORCA AIMD Velocity Step 49, t=24.50 fs, E_Pot=-13312.36567589 kJ mol^-1, Unit is Angstrom fs^-1
 O      0.0000160587      0.0000000000      0.0014738650
 H      0.0196082544     -0.0000000000     -0.0118057608
 H     -0.0198631385      0.0000000000     -0.0115874599
3
# ORCA AIMD Velocity Step 50, t=25.00 fs, E_Pot=-13311.75524841 kJ mol^-1, Unit is Angstrom fs^-1
 O     -0.0000018252      0.0000000000      0.0014319677
 H      0.0184083347     -0.0000000000     -0.0113735949
 H     -0.0183793649      0.0000000000     -0.0113546312
3
# ORCA AIMD Velocity Step 51, t=25.50 fs, E_Pot=-13310.87562046 kJ mol^-1, Unit is Angstrom fs^-1
 O     -0.0000192184      0.0000000000      0.0014133557
 H      0.0161508005     -0.0000000000     -0.0111307915
 H     -0.0158457658      0.0000000000     -0.0113020240
3
# ORCA AIMD Velocity Step 52, t=26.00 fs, E_Pot=-13309.90859126 kJ mol^-1, Unit is Angstrom fs^-1
 O     -0.0000342955      0.0000000000      0.0014058421
 H      0.0130241391     -0.0000000000     -0.0109901610
 H     -0.0124797999      0.0000000000     -0.0113233975
3
# ORCA AIMD Velocity Step 53, t=26.50 fs, E_Pot=-13309.04066920 kJ mol^-1, Unit is Angstrom fs^-1
 O     -0.0000455959      0.0000000000      0.0013940920
 H      0.0092834991     -0.0000000000     -0.0108371586
 H     -0.0085598002      0.0000000000     -0.0112899023
3
# ORCA AIMD Velocity Step 54, t=27.00 fs, E_Pot=-13308.40528341 kJ mol^-1, Unit is Angstrom fs^-1
 O     -0.0000520363      0.0000000000      0.0013614454
 H      0.0052258537     -0.0000000000     -0.0105445079
 H     -0.0043999326      0.0000000000     -0.0110643859
3
# ORCA AIMD Velocity Step 55, t=27.50 fs, E_Pot=-13308.04763446 kJ mol^-1, Unit is Angstrom fs^-1
 O     -0.0000529076      0.0000000000      0.0012913726
 H      0.0011674881     -0.0000000000     -0.0099839562
 H     -0.0003277380      0.0000000000     -0.0105127410
3
# ORCA AIMD Velocity Step 56, t=28.00 fs, E_Pot=-13307.92110854 kJ mol^-1, Unit is Angstrom fs^-1
 O     -0.0000479050      0.0000000000      0.0011687408
 H     -0.0025774777     -0.0000000000     -0.0090363196
 H      0.0033378263      0.0000000000     -0.0095139629
3
# ORCA AIMD Velocity Step 57, t=28.50 fs, E_Pot=-13307.91625241 kJ mol^-1, Unit is Angstrom fs^-1
 O     -0.0000372158      0.0000000000      0.0009811405
 H     -0.0057202339     -0.0000000000     -0.0076016929
 H      0.0063109234      0.0000000000     -0.0079709931
3
# ORCA AIMD Velocity Step 58, t=29.00 fs, E_Pot=-13307.91507580 kJ mol^-1, Unit is Angstrom fs^-1
 O     -0.0000216495      0.0000000000      0.0007204647
 H     -0.0080243899     -0.0000000000     -0.0056114250
 H      0.0083680107      0.0000000000     -0.0058238081
3
# ORCA AIMD Velocity Step 59, t=29.50 fs, E_Pot=-13307.85332050 kJ mol^-1, Unit is Angstrom fs^-1
 O     -0.0000027515      0.0000000000      0.0003847662
 H     -0.0093369695     -0.0000000000     -0.0030423322
 H      0.0093806411      0.0000000000     -0.0030646869
3
# ORCA AIMD Velocity Step 60, t=30.00 fs, E_Pot=-13307.76361404 kJ mol^-1, Unit is Angstrom fs^-1
 O      0.0000172007      0.0000000000     -0.0000198652
 H     -0.0096190020     -0.0000000000      0.0000684474
 H      0.0093459923      0.0000000000      0.0002468529
3
# ORCA AIMD Velocity Step 61, t=30.50 fs, E_Pot=-13307.77146688 kJ mol^-1, Unit is Angstrom fs^-1
 O      0.0000354248      0.0000000000     -0.0004780073
 H     -0.0089664385     -0.0000000000      0.0036122396
 H      0.0084041752      0.0000000000      0.0039747044
3
# ORCA AIMD Velocity Step 62, t=31.00 fs, E_Pot=-13308.03382887 kJ mol^-1, Unit is Angstrom fs^-1
 O      0.0000491311      0.0000000000     -0.0009649458
 H     -0.0076104989     -0.0000000000      0.0074069144
 H      0.0068306883      0.0000000000      0.0079087277
3
# ORCA AIMD Velocity Step 63, t=31.50 fs, E_Pot=-13308.64479670 kJ mol^-1, Unit is Angstrom fs^-1
 O      0.0000561593      0.0000000000     -0.0014486978
 H     -0.0058879706     -0.0000000000      0.0112099788
 H      0.0049966088      0.0000000000      0.0117837865
3
# ORCA AIMD Velocity Step 64, t=32.00 fs, E_Pot=-13309.56295937 kJ mol^-1, Unit is Angstrom fs^-1
 O      0.0000555239      0.0000000000     -0.0018939812
 H     -0.0041836694     -0.0000000000      0.0147473219
 H      0.0033023930      0.0000000000      0.0153139931
3
# ORCA AIMD Velocity Step 65, t=32.50 fs, E_Pot=-13310.60913725 kJ mol^-1, Unit is Angstrom fs^-1
 O      0.0000476362      0.0000000000     -0.0022672557
 H     -0.0028596449     -0.0000000000      0.0177517708
 H      0.0021035620      0.0000000000      0.0182341664
3
# ORCA AIMD Velocity Step 66, t=33.00 fs, E_Pot=-13311.53908332 kJ mol^-1, Unit is Angstrom fs^-1
 O      0.0000340920      0.0000000000     -0.0025415029
 H     -0.0021909376     -0.0000000000      0.0200016437
 H      0.0016498286      0.0000000000      0.0203371515
3
# ORCA AIMD Velocity Step 67, t=33.50 fs, E_Pot=-13312.14699908 kJ mol^-1, Unit is Angstrom fs^-1
 O      0.0000171660      0.0000000000     -0.0026994801
 H     -0.0023260323     -0.0000000000      0.0213487618
 H      0.0020535735      0.0000000000      0.0214974506
3
# ORCA AIMD Velocity Step 68, t=34.00 fs, E_Pot=-13312.34202702 kJ mol^-1, Unit is Angstrom fs^-1
 O     -0.0000007447      0.0000000000     -0.0027349111
 H     -0.0032779709     -0.0000000000      0.0217306073
 H      0.0032897901      0.0000000000      0.0216779670
3
# ORCA AIMD Velocity Step 69, t=34.50 fs, E_Pot=-13312.16532911 kJ mol^-1, Unit is Angstrom fs^-1
 O     -0.0000175308      0.0000000000     -0.0026518655
 H     -0.0049404980     -0.0000000000      0.0211676120
 H      0.0052187469      0.0000000000      0.0209228596
3
# ORCA AIMD Velocity Step 70, t=35.00 fs, E_Pot=-13311.75238627 kJ mol^-1, Unit is Angstrom fs^-1
 O     -0.0000315652      0.0000000000     -0.0024630330
 H     -0.0071176046     -0.0000000000      0.0197507122
 H      0.0076186084      0.0000000000      0.0193426056
3
# ORCA AIMD Velocity Step 71, t=35.50 fs, E_Pot=-13311.26754058 kJ mol^-1, Unit is Angstrom fs^-1
 O     -0.0000417216     -0.0000000000     -0.0021876238
 H     -0.0095556390      0.0000000000      0.0176250348
 H      0.0102178454      0.0000000000      0.0170969815
3
# ORCA AIMD Velocity Step 72, t=36.00 fs, E_Pot=-13310.84008422 kJ mol^-1, Unit is Angstrom fs^-1
 O     -0.0000473043     -0.0000000000     -0.0018493629
 H     -0.0119716391      0.0000000000      0.0149738134
 H      0.0127224534      0.0000000000      0.0143793186
3
# ORCA AIMD Velocity Step 73, t=36.50 fs, E_Pot=-13310.52229481 kJ mol^-1, Unit is Angstrom fs^-1
 O     -0.0000479671     -0.0000000000     -0.0014747230
 H     -0.0140763367      0.0000000000      0.0120040753
 H      0.0148376724      0.0000000000      0.0114027640
3
# ORCA AIMD Velocity Step 74, t=37.00 fs, E_Pot=-13310.27931552 kJ mol^-1, Unit is Angstrom fs^-1
 O     -0.0000436727     -0.0000000000     -0.0010912811
 H     -0.0155935369      0.0000000000      0.0089335011
 H      0.0162867106      0.0000000000      0.0083873391
3
# ORCA AIMD Velocity Step 75, t=37.50 fs, E_Pot=-13310.01243420 kJ mol^-1, Unit is Angstrom fs^-1
 O     -0.0000347079     -0.0000000000     -0.0007259461
 H     -0.0162789368      0.0000000000      0.0059765991
 H      0.0168298214      0.0000000000      0.0055456352
3
# ORCA AIMD Velocity Step 76, t=38.00 fs, E_Pot=-13309.60995463 kJ mol^-1, Unit is Angstrom fs^-1
 O     -0.0000217496     -0.0000000000     -0.0004027998
 H     -0.0159411831      0.0000000000      0.0033281299
 H      0.0162863933      0.0000000000      0.0030651189
3
# ORCA AIMD Velocity Step 77, t=38.50 fs, E_Pot=-13309.01109264 kJ mol^-1, Unit is Angstrom fs^-1
 O     -0.0000059431     -0.0000000000     -0.0001404572
 H     -0.0144661402      0.0000000000      0.0011428106
 H      0.0145604695      0.0000000000      0.0010865294
3
# ORCA AIMD Velocity Step 78, t=39.00 fs, E_Pot=-13308.25855438 kJ mol^-1, Unit is Angstrom fs^-1
 O      0.0000110667     -0.0000000000      0.0000508148
 H     -0.0118421361      0.0000000000     -0.0004872261
 H      0.0116664851      0.0000000000     -0.0003193076
3
# ORCA AIMD Velocity Step 79, t=39.50 fs, E_Pot=-13307.51067785 kJ mol^-1, Unit is Angstrom fs^-1
 O      0.0000272268     -0.0000000000      0.0001715432
 H     -0.0081801525      0.0000000000     -0.0015524159
 H      0.0077480088      0.0000000000     -0.0011703221
3
# ORCA AIMD Velocity Step 80, t=40.00 fs, E_Pot=-13306.99418757 kJ mol^-1, Unit is Angstrom fs^-1
 O      0.0000403401     -0.0000000000      0.0002340398
 H     -0.0037200259      0.0000000000     -0.0021354979
 H      0.0030797474      0.0000000000     -0.0015791869
3
# ORCA AIMD Velocity Step 81, t=40.50 fs, E_Pot=-13306.90817899 kJ mol^-1, Unit is Angstrom fs^-1
 O      0.0000484784     -0.0000000000      0.0002609768
 H      0.0011859133      0.0000000000     -0.0024032170
 H     -0.0019553629      0.0000000000     -0.0017390136
3
# ORCA AIMD Velocity Step 82, t=41.00 fs, E_Pot=-13307.32544196 kJ mol^-1, Unit is Angstrom fs^-1
 O      0.0000504188     -0.0000000000      0.0002812874
 H      0.0061146096      0.0000000000     -0.0025769687
 H     -0.0069148573      0.0000000000     -0.0018876315
3
# ORCA AIMD Velocity Step 83, t=41.50 fs, E_Pot=-13308.14926749 kJ mol^-1, Unit is Angstrom fs^-1
 O      0.0000459380     -0.0000000000      0.0003242504
 H      0.0106325543      0.0000000000     -0.0028879740
 H     -0.0113616836      0.0000000000     -0.0022585367
3
# ORCA AIMD Velocity Step 84, t=42.00 fs, E_Pot=-13309.15414466 kJ mol^-1, Unit is Angstrom fs^-1
 O      0.0000358270     -0.0000000000      0.0004134966
 H      0.0143595675      0.0000000000     -0.0035296746
 H     -0.0149282148      0.0000000000     -0.0030333538
3
# ORCA AIMD Velocity Step 85, t=42.50 fs, E_Pot=-13310.08599293 kJ mol^-1, Unit is Angstrom fs^-1
 O      0.0000216391     -0.0000000000      0.0005627233
 H      0.0170190925      0.0000000000     -0.0046217366
 H     -0.0173625481      0.0000000000     -0.0043098205
3
# ORCA AIMD Velocity Step 86, t=43.00 fs, E_Pot=-13310.76393757 kJ mol^-1, Unit is Angstrom fs^-1
 O      0.0000053074     -0.0000000000      0.0007740674
 H      0.0184642080      0.0000000000     -0.0061943072
 H     -0.0185484478      0.0000000000     -0.0060917097
3
# ORCA AIMD Velocity Step 87, t=43.50 fs, E_Pot=-13311.13409671 kJ mol^-1, Unit is Angstrom fs^-1
 O     -0.0000112211     -0.0000000000      0.0010389451
 H      0.0186787431      0.0000000000     -0.0081920525
 H     -0.0185006413      0.0000000000     -0.0082981083
3
# ORCA AIMD Velocity Step 88, t=44.00 fs, E_Pot=-13311.26108782 kJ mol^-1, Unit is Angstrom fs^-1
 O     -0.0000262292     -0.0000000000      0.0013404294
 H      0.0177603989      0.0000000000     -0.0104914143
 H     -0.0173440880      0.0000000000     -0.0107839132
3
# ORCA AIMD Velocity Step 89, t=44.50 fs, E_Pot=-13311.27482742 kJ mol^-1, Unit is Angstrom fs^-1
 O     -0.0000383315     -0.0000000000      0.0016561209
 H      0.0158954383      0.0000000000     -0.0129228058
 H     -0.0152870393      0.0000000000     -0.0133631845
3
# ORCA AIMD Velocity Step 90, t=45.00 fs, E_Pot=-13311.30262109 kJ mol^-1, Unit is Angstrom fs^-1
 O     -0.0000464785     -0.0000000000      0.0019607880
 H      0.0133326199      0.0000000000     -0.0152916823
 H     -0.0125949117      0.0000000000     -0.0158299921
3
# ORCA AIMD Velocity Step 91, t=45.50 fs, E_Pot=-13311.41261949 kJ mol^-1, Unit is Angstrom fs^-1
 O     -0.0000499233     -0.0000000000      0.0022285084
 H      0.0103601238      0.0000000000     -0.0173958818
 H     -0.0095677393      0.0000000000     -0.0179750566
3
# ORCA AIMD Velocity Step 92, t=46.00 fs, E_Pot=-13311.58473172 kJ mol^-1, Unit is Angstrom fs^-1
 O     -0.0000482057     -0.0000000000      0.0024343851
 H      0.0072855234      0.0000000000     -0.0190394745
 H     -0.0065204006      0.0000000000     -0.0195991443
3
# ORCA AIMD Velocity Step 93, t=46.50 fs, E_Pot=-13311.71586544 kJ mol^-1, Unit is Angstrom fs^-1
 O     -0.0000411900     -0.0000000000      0.0025560944
 H      0.0044164529      0.0000000000     -0.0200449603
 H     -0.0037626849      0.0000000000     -0.0205254304
3
# ORCA AIMD Velocity Step 94, t=47.00 fs, E_Pot=-13311.65883571 kJ mol^-1, Unit is Angstrom fs^-1
 O     -0.0000291681     -0.0000000000      0.0025755312
 H      0.0020386352      0.0000000000     -0.0202659143
 H     -0.0015756780      0.0000000000     -0.0206129789
3
# ORCA AIMD Velocity Step 95, t=47.50 fs, E_Pot=-13311.28598317 kJ mol^-1, Unit is Angstrom fs^-1
 O     -0.0000130068     -0.0000000000      0.0024807050
 H      0.0003886117      0.0000000000     -0.0196014360
 H     -0.0001821676      0.0000000000     -0.0197723723
3
# ORCA AIMD Velocity Step 96, t=48.00 fs, E_Pot=-13310.55772498 kJ mol^-1, Unit is Angstrom fs^-1
 O      0.0000057271     -0.0000000000      0.0022678004
 H     -0.0003788540      0.0000000000     -0.0180120974
 H      0.0002879534      0.0000000000     -0.0179824839
3
# ORCA AIMD Velocity Step 97, t=48.50 fs, E_Pot=-13309.56598975 kJ mol^-1, Unit is Angstrom fs^-1
 O      0.0000247666     -0.0000000000      0.0019429953
 H     -0.0002241376      0.0000000000     -0.0155346354
 H     -0.0001689589      0.0000000000     -0.0153046318
3
# ORCA AIMD Velocity Step 98, t=49.00 fs, E_Pot=-13308.52250795 kJ mol^-1, Unit is Angstrom fs^-1
 O      0.0000413810     -0.0000000000      0.0015233298
 H      0.0007529871      0.0000000000     -0.0122902452
 H     -0.0014097878      0.0000000000     -0.0118880819
3
# ORCA AIMD Velocity Step 99, t=49.50 fs, E_Pot=-13307.68293407 kJ mol^-1, Unit is Angstrom fs^-1
 O      0.0000528810     -0.0000000000      0.0010358668
 H      0.0023110406      0.0000000000     -0.0084804754
 H     -0.0031503684      0.0000000000     -0.0079608271
3
# ORCA AIMD Velocity Step 100, t=50.00 fs, E_Pot=-13307.23682374 kJ mol^-1, Unit is Angstrom fs^-1
 O      0.0000572756     -0.0000000000      0.0005147617
 H      0.0040960494      0.0000000000     -0.0043670460
 H     -0.0050051287      0.0000000000     -0.0038032634
3
# ORCA AIMD Velocity Step 101, t=50.50 fs, E_Pot=-13307.22435072 kJ mol^-1, Unit is Angstrom fs^-1
 O      0.0000538174     -0.0000000000     -0.0000033736
 H      0.0057012659      0.0000000000     -0.0002373956
 H     -0.0065554567      0.0000000000      0.0002909415
3
# ORCA AIMD Velocity Step 102, t=51.00 fs, E_Pot=-13307.53128737 kJ mol^-1, Unit is Angstrom fs^-1
 O      0.0000432093     -0.0000000000     -0.0004846722
 H      0.0067426854      0.0000000000      0.0036358122
 H     -0.0074285046      0.0000000000      0.0040569165
3
# ORCA AIMD Velocity Step 103, t=51.50 fs, E_Pot=-13307.96351579 kJ mol^-1, Unit is Angstrom fs^-1
 O      0.0000273382     -0.0000000000     -0.0009023123
 H      0.0069278601      0.0000000000      0.0070302654
 H     -0.0073617726      0.0000000000      0.0072912563
3
# ORCA AIMD Velocity Step 104, t=52.00 fs, E_Pot=-13308.35134218 kJ mol^-1, Unit is Angstrom fs^-1
 O      0.0000087138     -0.0000000000     -0.0012389423
 H      0.0060990115      0.0000000000      0.0097959469
 H     -0.0062373165      0.0000000000      0.0098685743
3
# ORCA AIMD Velocity Step 105, t=52.50 fs, E_Pot=-13308.62330586 kJ mol^-1, Unit is Angstrom fs^-1
 O     -0.0000100966     -0.0000000000     -0.0014870840
 H      0.0042435838      0.0000000000      0.0118608531
 H     -0.0040833306      0.0000000000      0.0117421798
3
# ORCA AIMD Velocity Step 106, t=53.00 fs, E_Pot=-13308.81875836 kJ mol^-1, Unit is Angstrom fs^-1
 O     -0.0000268908     -0.0000000000     -0.0016480101
 H      0.0014782096      0.0000000000      0.0132240287
 H     -0.0010513979      0.0000000000      0.0129332265
3
# ORCA AIMD Velocity Step 107, t=53.50 fs, E_Pot=-13309.04714807 kJ mol^-1, Unit is Angstrom fs^-1
 O     -0.0000400206     -0.0000000000     -0.0017299054
 H     -0.0019817161      0.0000000000      0.0139418447
 H      0.0026169233      0.0000000000      0.0135152547
3
# ORCA AIMD Velocity Step 108, t=54.00 fs, E_Pot=-13309.42308064 kJ mol^-1, Unit is Angstrom fs^-1
 O     -0.0000484027     -0.0000000000     -0.0017459547
 H     -0.0058555179      0.0000000000      0.0141129062
 H      0.0066237673      0.0000000000      0.0135989279
3
# ORCA AIMD Velocity Step 109, t=54.50 fs, E_Pot=-13310.00657860 kJ mol^-1, Unit is Angstrom fs^-1
 O     -0.0000514495     -0.0000000000     -0.0017126791
 H     -0.0098271220      0.0000000000      0.0138645793
 H      0.0106437298      0.0000000000      0.0133191040
3
# ORCA AIMD Velocity Step 110, t=55.00 fs, E_Pot=-13310.76795419 kJ mol^-1, Unit is Angstrom fs^-1
 O     -0.0000489964     -0.0000000000     -0.0016485416
 H     -0.0135698744      0.0000000000      0.0133416657
 H      0.0143475466      0.0000000000      0.0128240257
3
# ORCA AIMD Velocity Step 111, t=55.50 fs, E_Pot=-13311.58598248 kJ mol^-1, Unit is Angstrom fs^-1
 O     -0.0000412748     -0.0000000000     -0.0015726414
 H     -0.0167681525      0.0000000000      0.0126960306
 H      0.0174232672      0.0000000000      0.0122649704
3
# ORCA AIMD Velocity Step 112, t=56.00 fs, E_Pot=-13312.27960863 kJ mol^-1, Unit is Angstrom fs^-1
 O     -0.0000289391     -0.0000000000     -0.0015032370
 H     -0.0191388346      0.0000000000      0.0120751945
 H      0.0195981562      0.0000000000      0.0117842194
3
# ORCA AIMD Velocity Step 113, t=56.50 fs, E_Pot=-13312.66567192 kJ mol^-1, Unit is Angstrom fs^-1
 O     -0.0000131225     -0.0000000000     -0.0014558831
 H     -0.0204551604      0.0000000000      0.0116080712
 H      0.0206634417      0.0000000000      0.0114997399
3
# ORCA AIMD Velocity Step 114, t=57.00 fs, E_Pot=-13312.62605707 kJ mol^-1, Unit is Angstrom fs^-1
 O      0.0000045335     -0.0000000000     -0.0014411407
 H     -0.0205731569      0.0000000000      0.0113872418
 H      0.0205012017      0.0000000000      0.0114865780
3
# ORCA AIMD Velocity Step 115, t=57.50 fs, E_Pot=-13312.15891757 kJ mol^-1, Unit is Angstrom fs^-1
 O      0.0000219510     -0.0000000000     -0.0014621488
 H     -0.0194571803      0.0000000000      0.0114495617
 H      0.0191087729      0.0000000000      0.0117576985
3
# ORCA AIMD Velocity Step 116, t=58.00 fs, E_Pot=-13311.38709546 kJ mol^-1, Unit is Angstrom fs^-1
 O      0.0000368463     -0.0000000000     -0.0015127311
 H     -0.0171973132      0.0000000000      0.0117600015
 H      0.0166124885      0.0000000000      0.0122501028
3
# ORCA AIMD Velocity Step 117, t=58.50 fs, E_Pot=-13310.51109750 kJ mol^-1, Unit is Angstrom fs^-1
 O      0.0000471178     -0.0000000000     -0.0015769592
 H     -0.0140096289      0.0000000000      0.0122058581
 H      0.0132617744      0.0000000000      0.0128236757
3
# ORCA AIMD Velocity Step 118, t=59.00 fs, E_Pot=-13309.72363556 kJ mol^-1, Unit is Angstrom fs^-1
 O      0.0000512972     -0.0000000000     -0.0016309196
 H     -0.0102129111      0.0000000000      0.0126077568
 H      0.0093987209      0.0000000000      0.0132782382
3
# ORCA AIMD Velocity Step 119, t=59.50 fs, E_Pot=-13309.13043692 kJ mol^-1, Unit is Angstrom fs^-1
 O      0.0000488931     -0.0000000000     -0.0016467388
 H     -0.0061827903      0.0000000000      0.0127489450
 H      0.0054067578      0.0000000000      0.0133881323
3
# ORCA AIMD Velocity Step 120, t=60.00 fs, E_Pot=-13308.72284443 kJ mol^-1, Unit is Angstrom fs^-1
 O      0.0000404798     -0.0000000000     -0.0015979518
 H     -0.0022934474      0.0000000000      0.0124167914
 H      0.0016509518      0.0000000000      0.0129459383
3
# ORCA AIMD Velocity Step 121, t=60.50 fs, E_Pot=-13308.41510706 kJ mol^-1, Unit is Angstrom fs^-1
 O      0.0000274958     -0.0000000000     -0.0014646517
 H      0.0011373646      0.0000000000      0.0114445655
 H     -0.0015737793      0.0000000000      0.0118024210
3
# ORCA AIMD Velocity Step 122, t=61.00 fs, E_Pot=-13308.11768985 kJ mol^-1, Unit is Angstrom fs^-1
 O      0.0000118586     -0.0000000000     -0.0012369709
 H      0.0038862069      0.0000000000      0.0097414924
 H     -0.0040744274      0.0000000000      0.0098917392
3
# ORCA AIMD Velocity Step 123, t=61.50 fs, E_Pot=-13307.80028699 kJ mol^-1, Unit is Angstrom fs^-1
 O     -0.0000044402     -0.0000000000     -0.0009162379
 H      0.0058388696      0.0000000000      0.0073047359
 H     -0.0057683953      0.0000000000      0.0072378144
3
# ORCA AIMD Velocity Step 124, t=62.00 fs, E_Pot=-13307.51307730 kJ mol^-1, Unit is Angstrom fs^-1
 O     -0.0000196280     -0.0000000000     -0.0005140704
 H      0.0069850667      0.0000000000      0.0042143968
 H     -0.0066735304      0.0000000000      0.0039449413
3
# ORCA AIMD Velocity Step 125, t=62.50 fs, E_Pot=-13307.36363132 kJ mol^-1, Unit is Angstrom fs^-1
 O     -0.0000322912     -0.0000000000     -0.0000502182
 H      0.0074007250      0.0000000000      0.0006175471
 H     -0.0068881987      0.0000000000      0.0001795179
3
# ORCA AIMD Velocity Step 126, t=63.00 fs, E_Pot=-13307.46773314 kJ mol^-1, Unit is Angstrom fs^-1
 O     -0.0000413918     -0.0000000000      0.0004499953
 H      0.0072259278      0.0000000000     -0.0032918271
 H     -0.0065689570      0.0000000000     -0.0038505091
3
# ORCA AIMD Velocity Step 127, t=63.50 fs, E_Pot=-13307.89765624 kJ mol^-1, Unit is Angstrom fs^-1
 O     -0.0000462238     -0.0000000000      0.0009580825
 H      0.0066438356      0.0000000000     -0.0072921826
 H     -0.0059101709      0.0000000000     -0.0079145252
3
# ORCA AIMD Velocity Step 128, t=64.00 fs, E_Pot=-13308.64625433 kJ mol^-1, Unit is Angstrom fs^-1
 O     -0.0000463660     -0.0000000000      0.0014444768
 H      0.0058624110      0.0000000000     -0.0111512823
 H     -0.0051264888      0.0000000000     -0.0117754880
3
# ORCA AIMD Velocity Step 129, t=64.50 fs, E_Pot=-13309.61716979 kJ mol^-1, Unit is Angstrom fs^-1
 O     -0.0000416722     -0.0000000000      0.0018803906
 H      0.0050981615      0.0000000000     -0.0146410378
 H     -0.0044367401      0.0000000000     -0.0152045669
3
# ORCA AIMD Velocity Step 130, t=65.00 fs, E_Pot=-13310.64421605 kJ mol^-1, Unit is Angstrom fs^-1
 O     -0.0000323158     -0.0000000000      0.0022396643
 H      0.0045597077      0.0000000000     -0.0175519575
 H     -0.0040467910      0.0000000000     -0.0179960471
3
# ORCA AIMD Velocity Step 131, t=65.50 fs, E_Pot=-13311.53626392 kJ mol^-1, Unit is Angstrom fs^-1
 O     -0.0000188857     -0.0000000000      0.0025008047
 H      0.0044287254      0.0000000000     -0.0197088355
 H     -0.0041289712      0.0000000000     -0.0199839962
3
# ORCA AIMD Velocity Step 132, t=66.00 fs, E_Pot=-13312.13608717 kJ mol^-1, Unit is Angstrom fs^-1
 O     -0.0000024968     -0.0000000000      0.0026492242
 H      0.0048370858      0.0000000000     -0.0209880382
 H     -0.0047974569      0.0000000000     -0.0210605110
3
# ORCA AIMD Velocity Step 133, t=66.50 fs, E_Pot=-13312.37304506 kJ mol^-1, Unit is Angstrom fs^-1
 O      0.0000151523     -0.0000000000      0.0026794021
 H      0.0058416966      0.0000000000     -0.0213346210
 H     -0.0060821947      0.0000000000     -0.0211929122
3
# ORCA AIMD Velocity Step 134, t=67.00 fs, E_Pot=-13312.28511548 kJ mol^-1, Unit is Angstrom fs^-1
 O      0.0000318608     -0.0000000000      0.0025963813
 H      0.0074021829      0.0000000000     -0.0207750763
 H     -0.0079078790      0.0000000000     -0.0204347488
3
# ORCA AIMD Velocity Step 135, t=67.50 fs, E_Pot=-13311.99354788 kJ mol^-1, Unit is Angstrom fs^-1
 O      0.0000452128     -0.0000000000      0.0024158492
 H      0.0093698303      0.0000000000     -0.0194199906
 H     -0.0100874486      0.0000000000     -0.0189244255
3
# ORCA AIMD Velocity Step 136, t=68.00 fs, E_Pot=-13311.63659006 kJ mol^-1, Unit is Angstrom fs^-1
 O      0.0000530500     -0.0000000000      0.0021622501
 H      0.0114965625      0.0000000000     -0.0174519003
 H     -0.0123385740      0.0000000000     -0.0168673843
3
# ORCA AIMD Velocity Step 137, t=68.50 fs, E_Pot=-13311.29652914 kJ mol^-1, Unit is Angstrom fs^-1
 O      0.0000539968     -0.0000000000      0.0018649961
 H      0.0134679512      0.0000000000     -0.0150979539
 H     -0.0143249893      0.0000000000     -0.0145033079
3
# ORCA AIMD Velocity Step 138, t=69.00 fs, E_Pot=-13310.96400328 kJ mol^-1, Unit is Angstrom fs^-1
 O      0.0000478244     -0.0000000000      0.0015536206
 H      0.0149554935      0.0000000000     -0.0125929332
 H     -0.0157145641      0.0000000000     -0.0120661697
3
# ORCA AIMD Velocity Step 139, t=69.50 fs, E_Pot=-13310.56151809 kJ mol^-1, Unit is Angstrom fs^-1
 O      0.0000354975     -0.0000000000      0.0012532146
 H      0.0156746369      0.0000000000     -0.0101426395
 H     -0.0162380534      0.0000000000     -0.0097484126
3
# ORCA AIMD Velocity Step 140, t=70.00 fs, E_Pot=-13310.00864130 kJ mol^-1, Unit is Angstrom fs^-1
 O      0.0000188951     -0.0000000000      0.0009813466
 H      0.0154321963     -0.0000000000     -0.0078974612
 H     -0.0157320999      0.0000000000     -0.0076784958
3
# ORCA AIMD Velocity Step 141, t=70.50 fs, E_Pot=-13309.28634034 kJ mol^-1, Unit is Angstrom fs^-1
 O      0.0000003514      0.0000000000      0.0007469662
 H      0.0141520503     -0.0000000000     -0.0059410411
 H     -0.0141576272      0.0000000000     -0.0059148239
3
# ORCA AIMD Velocity Step 142, t=71.00 fs, E_Pot=-13308.46448934 kJ mol^-1, Unit is Angstrom fs^-1
 O     -0.0000177967      0.0000000000      0.0005510339
 H      0.0118770626     -0.0000000000     -0.0042930001
 H     -0.0115945934      0.0000000000     -0.0044530225
3
# ORCA AIMD Velocity Step 143, t=71.50 fs, E_Pot=-13307.68335682 kJ mol^-1, Unit is Angstrom fs^-1
 O     -0.0000335212      0.0000000000      0.0003881563
 H      0.0087532051     -0.0000000000     -0.0029205383
 H     -0.0082211555      0.0000000000     -0.0032402879
3
# ORCA AIMD Velocity Step 144, t=72.00 fs, E_Pot=-13307.10409896 kJ mol^-1, Unit is Angstrom fs^-1
 O     -0.0000452507      0.0000000000      0.0002485225
 H      0.0050045409     -0.0000000000     -0.0017533089
 H     -0.0042863201      0.0000000000     -0.0021912459
3
# ORCA AIMD Velocity Step 145, t=72.50 fs, E_Pot=-13306.85263453 kJ mol^-1, Unit is Angstrom fs^-1
 O     -0.0000518976      0.0000000000      0.0001196859
 H      0.0009063521     -0.0000000000     -0.0006976244
 H     -0.0000826315      0.0000000000     -0.0012020325
3
# ORCA AIMD Velocity Step 146, t=73.00 fs, E_Pot=-13306.97784588 kJ mol^-1, Unit is Angstrom fs^-1
 O     -0.0000528384      0.0000000000     -0.0000119714
 H     -0.0032396778     -0.0000000000      0.0003516894
 H      0.0040783307      0.0000000000     -0.0001616788
3
# ORCA AIMD Velocity Step 147, t=73.50 fs, E_Pot=-13307.43655730 kJ mol^-1, Unit is Angstrom fs^-1
 O     -0.0000479079      0.0000000000     -0.0001599842
 H     -0.0071282355     -0.0000000000      0.0015012375
 H      0.0078886314      0.0000000000      0.0010380347
3
# ORCA AIMD Velocity Step 148, t=74.00 fs, E_Pot=-13308.10921888 kJ mol^-1, Unit is Angstrom fs^-1
 O     -0.0000374379      0.0000000000     -0.0003365507
 H     -0.0104728918     -0.0000000000      0.0028492886
 H      0.0110671071      0.0000000000      0.0024924516
3
# ORCA AIMD Velocity Step 149, t=74.50 fs, E_Pot=-13308.84221562 kJ mol^-1, Unit is Angstrom fs^-1
 O     -0.0000223335      0.0000000000     -0.0005510692
 H     -0.0130305636     -0.0000000000      0.0044745972
 H      0.0133850414      0.0000000000      0.0042719867
3
# ORCA AIMD Velocity Step 150, t=75.00 fs, E_Pot=-13309.50406719 kJ mol^-1, Unit is Angstrom fs^-1
 O     -0.0000041288      0.0000000000     -0.0008083885
 H     -0.0146283350     -0.0000000000      0.0064229086
 H      0.0146938668      0.0000000000      0.0064078522
3
# ORCA AIMD Velocity Step 151, t=75.50 fs, E_Pot=-13310.03413692 kJ mol^-1, Unit is Angstrom fs^-1
 O      0.0000150346      0.0000000000     -0.0011068641
 H     -0.0151905719     -0.0000000000      0.0086916947
 H      0.0149519422      0.0000000000      0.0088764787
3
# ORCA AIMD Velocity Step 152, t=76.00 fs, E_Pot=-13310.45915706 kJ mol^-1, Unit is Angstrom fs^-1
 O      0.0000326074      0.0000000000     -0.0014367500
 H     -0.0147592937     -0.0000000000      0.0112166857
 H      0.0142417490      0.0000000000      0.0115874443
3
# ORCA AIMD Velocity Step 153, t=76.50 fs, E_Pot=-13310.86279994 kJ mol^-1, Unit is Angstrom fs^-1
 O      0.0000460493      0.0000000000     -0.0017796391
 H     -0.0134985916     -0.0000000000      0.0138655234
 H      0.0127676962      0.0000000000      0.0143809510
3
# ORCA AIMD Velocity Step 154, t=77.00 fs, E_Pot=-13311.31869624 kJ mol^-1, Unit is Angstrom fs^-1
 O      0.0000533611      0.0000000000     -0.0021095984
 H     -0.0116760101     -0.0000000000      0.0164440578
 H      0.0108290612      0.0000000000      0.0170395376
3
# ORCA AIMD Velocity Step 155, t=77.50 fs, E_Pot=-13311.82454456 kJ mol^-1, Unit is Angstrom fs^-1
 O      0.0000535620      0.0000000000     -0.0023963082
 H     -0.0096194759     -0.0000000000      0.0187184642
 H      0.0087693385      0.0000000000      0.0193157967
3
# ORCA AIMD Velocity Step 156, t=78.00 fs, E_Pot=-13312.28072998 kJ mol^-1, Unit is Angstrom fs^-1
 O      0.0000469038      0.0000000000     -0.0026096564
 H     -0.0076589709     -0.0000000000      0.0204499944
 H      0.0069145130      0.0000000000      0.0209705345
3
# ORCA AIMD Velocity Step 157, t=78.50 fs, E_Pot=-13312.53011699 kJ mol^-1, Unit is Angstrom fs^-1
 O      0.0000347288      0.0000000000     -0.0027245841
 H     -0.0060691787     -0.0000000000      0.0214335815
 H      0.0055179628      0.0000000000      0.0218110823
3
# ORCA AIMD Velocity Step 158, t=79.00 fs, E_Pot=-13312.43506905 kJ mol^-1, Unit is Angstrom fs^-1
 O      0.0000190570      0.0000000000     -0.0027248546
 H     -0.0050288228     -0.0000000000      0.0215295883
 H      0.0047263499      0.0000000000      0.0217193694
3
# ORCA AIMD Velocity Step 159, t=79.50 fs, E_Pot=-13311.94606283 kJ mol^-1, Unit is Angstrom fs^-1
 O      0.0000020965      0.0000000000     -0.0026049148
 H     -0.0046046754     -0.0000000000      0.0206812031
 H      0.0045713991      0.0000000000      0.0206640674
3
# ORCA AIMD Velocity Step 160, t=80.00 fs, E_Pot=-13311.12730276 kJ mol^-1, Unit is Angstrom fs^-1
 O     -0.0000141453      0.0000000000     -0.0023698015
 H     -0.0047583752     -0.0000000000      0.0189160748
 H      0.0049828898      0.0000000000      0.0186974709
3
# ORCA AIMD Velocity Step 161, t=80.50 fs, E_Pot=-13310.13361221 kJ mol^-1, Unit is Angstrom fs^-1
 O     -0.0000280688      0.0000000000     -0.0020336515
 H     -0.0053676535     -0.0000000000      0.0163359916
 H      0.0058131626      0.0000000000      0.0159421733
3
# ORCA AIMD Velocity Step 162, t=81.00 fs, E_Pot=-13309.15631621 kJ mol^-1, Unit is Angstrom fs^-1
 O     -0.0000385258      0.0000000000     -0.0016175612
 H     -0.0062526166     -0.0000000000      0.0131004554
 H      0.0068640995      0.0000000000      0.0125735139
3
# ORCA AIMD Velocity Step 163, t=81.50 fs, E_Pot=-13308.36328214 kJ mol^-1, Unit is Angstrom fs^-1
 O     -0.0000447698      0.0000000000     -0.0011473754
 H     -0.0072006022     -0.0000000000      0.0094090740
 H      0.0079111896      0.0000000000      0.0088020959
3
# ORCA AIMD Velocity Step 164, t=82.00 fs, E_Pot=-13307.85351584 kJ mol^-1, Unit is Angstrom fs^-1
 O     -0.0000463845      0.0000000000     -0.0006516750
 H     -0.0079870596     -0.0000000000      0.0054853087
 H      0.0087232762      0.0000000000      0.0048580929
3
# ORCA AIMD Velocity Step 165, t=82.50 fs, E_Pot=-13307.63787947 kJ mol^-1, Unit is Angstrom fs^-1
 O     -0.0000432352      0.0000000000     -0.0001599439
 H     -0.0083931138     -0.0000000000      0.0015617047
 H      0.0090793446      0.0000000000      0.0009769279
3
# ORCA AIMD Velocity Step 166, t=83.00 fs, E_Pot=-13307.64949872 kJ mol^-1, Unit is Angstrom fs^-1
 O     -0.0000354921      0.0000000000      0.0002992859
 H     -0.0082219502     -0.0000000000     -0.0021344978
 H      0.0087852824      0.0000000000     -0.0026157744
3
# ORCA AIMD Velocity Step 167, t=83.50 fs, E_Pot=-13307.78059369 kJ mol^-1, Unit is Angstrom fs^-1
 O     -0.0000236791      0.0000000000      0.0007005291
 H     -0.0073166464     -0.0000000000     -0.0053976703
 H      0.0076924822      0.0000000000     -0.0057211435
3
# ORCA AIMD Velocity Step 168, t=84.00 fs, E_Pot=-13307.93506322 kJ mol^-1, Unit is Angstrom fs^-1
 O     -0.0000087481      0.0000000000      0.0010237915
 H     -0.0055806789     -0.0000000000     -0.0080627235
 H      0.0057195284      0.0000000000     -0.0081869202
3
# ORCA AIMD Velocity Step 169, t=84.50 fs, E_Pot=-13308.07789129 kJ mol^-1, Unit is Angstrom fs^-1
 O      0.0000078454      0.0000000000      0.0012571941
 H     -0.0029999380     -0.0000000000     -0.0100253935
 H      0.0028754164      0.0000000000     -0.0099288216
3
# ORCA AIMD Velocity Step 170, t=85.00 fs, E_Pot=-13308.25712829 kJ mol^-1, Unit is Angstrom fs^-1
 O      0.0000241855      0.0000000000      0.0013992106
 H      0.0003379234     -0.0000000000     -0.0112604877
 H     -0.0007217964      0.0000000000     -0.0109478157
3
# ORCA AIMD Velocity Step 171, t=85.50 fs, E_Pot=-13308.57976111 kJ mol^-1, Unit is Angstrom fs^-1
 O      0.0000380991      0.0000000000      0.0014596479
 H      0.0042344037     -0.0000000000     -0.0118312744
 H     -0.0048391136      0.0000000000     -0.0113362924
3
# ORCA AIMD Velocity Step 172, t=86.00 fs, E_Pot=-13309.14451283 kJ mol^-1, Unit is Angstrom fs^-1
 O      0.0000475266      0.0000000000      0.0014585211
 H      0.0083895057     -0.0000000000     -0.0118832819
 H     -0.0091438491      0.0000000000     -0.0112663992
3
# ORCA AIMD Velocity Step 173, t=86.50 fs, E_Pot=-13309.96460112 kJ mol^-1, Unit is Angstrom fs^-1
 O      0.0000509747      0.0000000000      0.0014225313
 H      0.0124339831     -0.0000000000     -0.0116194444
 H     -0.0132430545      0.0000000000     -0.0109590057
3
# ORCA AIMD Velocity Step 174, t=87.00 fs, E_Pot=-13310.92876411 kJ mol^-1, Unit is Angstrom fs^-1
 O      0.0000478823      0.0000000000      0.0013798079
 H      0.0159810616     -0.0000000000     -0.0112605914
 H     -0.0167410511      0.0000000000     -0.0106397519
3
# ORCA AIMD Velocity Step 175, t=87.50 fs, E_Pot=-13311.83024433 kJ mol^-1, Unit is Angstrom fs^-1
 O      0.0000387447      0.0000000000      0.0013543992
 H      0.0186855350     -0.0000000000     -0.0110020942
 H     -0.0193004913      0.0000000000     -0.0104949625
3
# ORCA AIMD Velocity Step 176, t=88.00 fs, E_Pot=-13312.45003222 kJ mol^-1, Unit is Angstrom fs^-1
 O      0.0000249504      0.0000000000      0.0013621318
 H      0.0202943367     -0.0000000000     -0.0109794372
 H     -0.0206903500      0.0000000000     -0.0106403511
3
# ORCA AIMD Velocity Step 177, t=88.50 fs, E_Pot=-13312.64688159 kJ mol^-1, Unit is Angstrom fs^-1
 O      0.0000084232      0.0000000000      0.0014087875
 H      0.0206765179     -0.0000000000     -0.0112510843
 H     -0.0208102112      0.0000000000     -0.0111092239
3
# ORCA AIMD Velocity Step 178, t=89.00 fs, E_Pot=-13312.40763124 kJ mol^-1, Unit is Angstrom fs^-1
 O     -0.0000087733      0.0000000000      0.0014905571
 H      0.0198291200     -0.0000000000     -0.0117994629
 H     -0.0196898696      0.0000000000     -0.0118586951
3
# ORCA AIMD Velocity Step 179, t=89.50 fs, E_Pot=-13311.84016368 kJ mol^-1, Unit is Angstrom fs^-1
 O     -0.0000247373      0.0000000000      0.0015959986
 H      0.0178637551     -0.0000000000     -0.0125447290
 H     -0.0174711242      0.0000000000     -0.0127869986
3
# ORCA AIMD Velocity Step 180, t=90.00 fs, E_Pot=-13311.12195855 kJ mol^-1, Unit is Angstrom fs^-1
 O     -0.0000378884      0.0000000000      0.0017085466
 H      0.0149826958     -0.0000000000     -0.0133639260
 H     -0.0143813308      0.0000000000     -0.0137541663
3
# ORCA AIMD Velocity Step 181, t=90.50 fs, E_Pot=-13310.43179991 kJ mol^-1, Unit is Angstrom fs^-1
 O     -0.0000470105      0.0000000000      0.0018088767
 H      0.0114524655     -0.0000000000     -0.0141097271
 H     -0.0107063145      0.0000000000     -0.0146008075
3
# ORCA AIMD Velocity Step 182, t=91.00 fs, E_Pot=-13309.89059380 kJ mol^-1, Unit is Angstrom fs^-1
 O     -0.0000512375      0.0000000000      0.0018768302
 H      0.0075794393     -0.0000000000     -0.0146259984
 H     -0.0067661968      0.0000000000     -0.0151630946
3
# ORCA AIMD Velocity Step 183, t=91.50 fs, E_Pot=-13309.52827421 kJ mol^-1, Unit is Angstrom fs^-1
 O     -0.0000500433      0.0000000000      0.0018929344
 H      0.0036882173     -0.0000000000     -0.0147600991
 H     -0.0028939284      0.0000000000     -0.0152846009
3
# ORCA AIMD Velocity Step 184, t=92.00 fs, E_Pot=-13309.28457089 kJ mol^-1, Unit is Angstrom fs^-1
 O     -0.0000432767      0.0000000000      0.0018397356
 H      0.0001008346     -0.0000000000     -0.0143734213
 H      0.0005860536      0.0000000000     -0.0148269062
3
# ORCA AIMD Velocity Step 185, t=92.50 fs, E_Pot=-13309.04366461 kJ mol^-1, Unit is Angstrom fs^-1
 O     -0.0000312578      0.0000000000      0.0017032115
 H     -0.0028864137     -0.0000000000     -0.0133522500
 H      0.0033825380      0.0000000000     -0.0136811633
3
# ORCA AIMD Velocity Step 186, t=93.00 fs, E_Pot=-13308.69441804 kJ mol^-1, Unit is Angstrom fs^-1
 O     -0.0000149164      0.0000000000      0.0014744509
 H     -0.0050311400     -0.0000000000     -0.0116205408
 H      0.0052678932      0.0000000000     -0.0117819796
3
# ORCA AIMD Velocity Step 187, t=93.50 fs, E_Pot=-13308.19702992 kJ mol^-1, Unit is Angstrom fs^-1
 O      0.0000040980      0.0000000000      0.0011515814
 H     -0.0061779086     -0.0000000000     -0.0091547851
 H      0.0061128657      0.0000000000     -0.0091231421
3
# ORCA AIMD Velocity Step 188, t=94.00 fs, E_Pot=-13307.62645233 kJ mol^-1, Unit is Angstrom fs^-1
 O      0.0000234381      0.0000000000      0.0007416265
 H     -0.0062914212     -0.0000000000     -0.0059989216
 H      0.0059194116      0.0000000000     -0.0057721916
3
# ORCA AIMD Velocity Step 189, t=94.50 fs, E_Pot=-13307.16231689 kJ mol^-1, Unit is Angstrom fs^-1
 O      0.0000403203      0.0000000000      0.0002616488
 H     -0.0054797457     -0.0000000000     -0.0022746347
 H      0.0048397801      0.0000000000     -0.0018782617
3
# ORCA AIMD Velocity Step 190, t=95.00 fs, E_Pot=-13307.01552768 kJ mol^-1, Unit is Angstrom fs^-1
 O      0.0000520440      0.0000000000     -0.0002616210
 H     -0.0039945270     -0.0000000000      0.0018192306
 H      0.0031684830      0.0000000000      0.0023332248
3
# ORCA AIMD Velocity Step 191, t=95.50 fs, E_Pot=-13307.32086941 kJ mol^-1, Unit is Angstrom fs^-1
 O      0.0000566673      0.0000000000     -0.0007941801
 H     -0.0021996590     -0.0000000000      0.0060225083
 H      0.0013002341      0.0000000000      0.0065827371
3
# ORCA AIMD Velocity Step 192, t=96.00 fs, E_Pot=-13308.05673360 kJ mol^-1, Unit is Angstrom fs^-1
 O      0.0000535244      0.0000000000     -0.0012990750
 H     -0.0005086859     -0.0000000000      0.0100455969
 H     -0.0003408554      0.0000000000      0.0105733527
3
# ORCA AIMD Velocity Step 193, t=96.50 fs, E_Pot=-13309.04478861 kJ mol^-1, Unit is Angstrom fs^-1
 O      0.0000433658      0.0000000000     -0.0017416220
 H      0.0006926445     -0.0000000000      0.0136101141
 H     -0.0013809479      0.0000000000      0.0140329519
3
# ORCA AIMD Velocity Step 194, t=97.00 fs, E_Pot=-13310.03112311 kJ mol^-1, Unit is Angstrom fs^-1
 O      0.0000280873      0.0000000000     -0.0020940598
 H      0.0011146784     -0.0000000000      0.0164868170
 H     -0.0015604814      0.0000000000      0.0167501497
3
# ORCA AIMD Velocity Step 195, t=97.50 fs, E_Pot=-13310.79807581 kJ mol^-1, Unit is Angstrom fs^-1
 O      0.0000101606      0.0000000000     -0.0023385255
 H      0.0006055530     -0.0000000000      0.0185217687
 H     -0.0007668226      0.0000000000      0.0185953640
3
# ORCA AIMD Velocity Step 196, t=98.00 fs, E_Pot=-13311.24404268 kJ mol^-1, Unit is Angstrom fs^-1
 O     -0.0000079430      0.0000000000     -0.0024679282
 H     -0.0008406265     -0.0000000000      0.0196459891
 H      0.0009666979      0.0000000000      0.0195250258
3
# ORCA AIMD Velocity Step 197, t=98.50 fs, E_Pot=-13311.39881488 kJ mol^-1, Unit is Angstrom fs^-1
 O     -0.0000241468      0.0000000000     -0.0024851082
 H     -0.0031022217     -0.0000000000      0.0198707937
 H      0.0034854799      0.0000000000      0.0195729033
3
# ORCA AIMD Velocity Step 198, t=99.00 fs, E_Pot=-13311.38208664 kJ mol^-1, Unit is Angstrom fs^-1
 O     -0.0000369295      0.0000000000     -0.0024010450
 H     -0.0059622248     -0.0000000000      0.0192745372
 H      0.0065483711      0.0000000000      0.0188349066
3
# ORCA AIMD Velocity Step 199, t=99.50 fs, E_Pot=-13311.33509886 kJ mol^-1, Unit is Angstrom fs^-1
 O     -0.0000453131      0.0000000000     -0.0022328197
 H     -0.0091425273     -0.0000000000      0.0179865775
 H      0.0098617387      0.0000000000      0.0174527903
3
# ORCA AIMD Velocity Step 200, t=100.00 fs, E_Pot=-13311.35609632 kJ mol^-1, Unit is Angstrom fs^-1
 O     -0.0000487732      0.0000000000     -0.0020017471
 H     -0.0123337497     -0.0000000000      0.0161721614
 H      0.0131078785      0.0000000000      0.0155996162
