3
# ORCA AIMD Force Step 0, t=0.00 fs, E_Pot=-13310.15391930 kJ mol^-1, Unit is kJ mol^-1 Angstrom^-1
 O      0.0000000000      0.0000000000      0.0000000000
 H      0.0000000000      0.0000000000      0.0000000000
 H      0.0000000000      0.0000000000      0.0000000000
3
# ORCA AIMD Force Step 1, t=0.50 fs, E_Pot=-13311.01227758 kJ mol^-1, Unit is kJ mol^-1 Angstrom^-1
 O      1.6361319728      0.0000000000    108.2918796984
 H    -32.5305464652     -0.0000000000    -54.7848877819
 H     30.8944144924      0.0000000000    -53.5069919164
3
# ORCA AIMD Force Step 2, t=1.00 fs, E_Pot=-13311.84254398 kJ mol^-1, Unit is kJ mol^-1 Angstrom^-1
 O      3.2315873334      0.0000000000     78.2301158462
 H    -26.8959202263      0.0000000000    -40.3553467410
 H     23.6643328929     -0.0000000000    -37.8747691052
3
# ORCA AIMD Force Step 3, t=1.50 fs, E_Pot=-13312.45960413 kJ mol^-1, Unit is kJ mol^-1 Angstrom^-1
 O      4.6342221075      0.0000000000     42.2972167741
 H    -16.9857354556     -0.0000000000    -22.8938426321
 H     12.3515133481      0.0000000000    -19.4033741420
3
# ORCA AIMD Force Step 4, t=2.00 fs, E_Pot=-13312.70789746 kJ mol^-1, Unit is kJ mol^-1 Angstrom^-1
 O      5.6466208110     -0.0000000000      2.9719231158
 H     -3.9998774416      0.0000000000     -3.5695251644
 H     -1.6467433693     -0.0000000000      0.5976020487
3
# ORCA AIMD Force Step 5, t=2.50 fs, E_Pot=-13312.52201126 kJ mol^-1, Unit is kJ mol^-1 Angstrom^-1
 O      6.0490425226      0.0000000000    -36.6003725514
 H     10.2664460706     -0.0000000000     16.1157530178
 H    -16.3154885933      0.0000000000     20.4846195336
3
# ORCA AIMD Force Step 6, t=3.00 fs, E_Pot=-13311.95986989 kJ mol^-1, Unit is kJ mol^-1 Angstrom^-1
 O      5.6572046039      0.0000000000    -72.8695754513
 H     23.5105072431     -0.0000000000     34.4370800720
 H    -29.1677118470      0.0000000000     38.4324953792
3
# ORCA AIMD Force Step 7, t=3.50 fs, E_Pot=-13311.18556671 kJ mol^-1, Unit is kJ mol^-1 Angstrom^-1
 O      4.4041039733     -0.0000000000   -102.3980085733
 H     33.2240690533      0.0000000000     49.6792611806
 H    -37.6281730265     -0.0000000000     52.7187473927
3
# ORCA AIMD Force Step 8, t=4.00 fs, E_Pot=-13310.40056906 kJ mol^-1, Unit is kJ mol^-1 Angstrom^-1
 O      2.4087260990      0.0000000000   -122.5394553837
 H     37.2006455494     -0.0000000000     60.4595119360
 H    -39.6093716485      0.0000000000     62.0799434478
3
# ORCA AIMD Force Step 9, t=4.50 fs, E_Pot=-13309.75449326 kJ mol^-1, Unit is kJ mol^-1 Angstrom^-1
 O     -0.0156933597      0.0000000000   -132.0400322333
 H     34.1029300489     -0.0000000000     66.0335798086
 H    -34.0872366892     -0.0000000000     66.0064524247
3
# ORCA AIMD Force Step 10, t=5.00 fs, E_Pot=-13309.28605498 kJ mol^-1, Unit is kJ mol^-1 Angstrom^-1
 O     -2.4394422736      0.0000000000   -131.3049618712
 H     23.8677687039     -0.0000000000     66.4604260551
 H    -21.4283264302     -0.0000000000     64.8445358161
3
# ORCA AIMD Force Step 11, t=5.50 fs, E_Pot=-13308.92949088 kJ mol^-1, Unit is kJ mol^-1 Angstrom^-1
 O     -4.4457463734     -0.0000000000   -122.1840458334
 H      7.7393360323      0.0000000000     62.5371184388
 H     -3.2935896589      0.0000000000     59.6469273946
3
# ORCA AIMD Force Step 12, t=6.00 fs, E_Pot=-13308.57878020 kJ mol^-1, Unit is kJ mol^-1 Angstrom^-1
 O     -5.7471150244     -0.0000000000   -107.3949473153
 H    -12.0744197852     -0.0000000000     55.5427022553
 H     17.8215348096      0.0000000000     51.8522450600
3
# ORCA AIMD Force Step 13, t=6.50 fs, E_Pot=-13308.16599730 kJ mol^-1, Unit is kJ mol^-1 Angstrom^-1
 O     -6.2268754913      0.0000000000    -89.8761799826
 H    -32.9400285915     -0.0000000000     46.9199049586
 H     39.1669040828      0.0000000000     42.9562750239
3
# ORCA AIMD Force Step 14, t=7.00 fs, E_Pot=-13307.70818943 kJ mol^-1, Unit is kJ mol^-1 Angstrom^-1
 O     -5.9336356698     -0.0000000000    -72.2165352366
 H    -52.3495584608      0.0000000000     37.9869932209
 H     58.2831941306     -0.0000000000     34.2295420157
3
# ORCA AIMD Force Step 15, t=7.50 fs, E_Pot=-13307.30376486 kJ mol^-1, Unit is kJ mol^-1 Angstrom^-1
 O     -4.9999022863      0.0000000000    -56.4427301826
 H    -68.2424688161     -0.0000000000     29.8007752708
 H     73.2423711024     -0.0000000000     26.6419549118
3
# ORCA AIMD Force Step 16, t=8.00 fs, E_Pot=-13307.08914937 kJ mol^-1, Unit is kJ mol^-1 Angstrom^-1
 O     -3.5927993814     -0.0000000000    -43.9562211320
 H    -79.1491460379      0.0000000000     23.1127694476
 H     82.7419454194      0.0000000000     20.8434516845
3
# ORCA AIMD Force Step 17, t=8.50 fs, E_Pot=-13307.18092659 kJ mol^-1, Unit is kJ mol^-1 Angstrom^-1
 O     -1.8755843810      0.0000000000    -35.6203671254
 H    -84.1748472739      0.0000000000     18.4020358360
 H     86.0504316549     -0.0000000000     17.2183312893
3
# ORCA AIMD Force Step 18, t=9.00 fs, E_Pot=-13307.62750302 kJ mol^-1, Unit is kJ mol^-1 Angstrom^-1
 O      0.0020751245      0.0000000000    -31.8615765100
 H    -82.9290852554     -0.0000000000     15.9241961069
 H     82.9270101309      0.0000000000     15.9373804031
3
# ORCA AIMD Force Step 19, t=9.50 fs, E_Pot=-13308.38567285 kJ mol^-1, Unit is kJ mol^-1 Angstrom^-1
 O      1.8947609673     -0.0000000000    -32.7217230094
 H    -75.4707057035      0.0000000000     15.7416416987
 H     73.5759447361     -0.0000000000     16.9800813107
3
# ORCA AIMD Force Step 20, t=10.00 fs, E_Pot=-13309.32820945 kJ mol^-1, Unit is kJ mol^-1 Angstrom^-1
 O      3.6447214740      0.0000000000    -37.8332530416
 H    -62.3029094003     -0.0000000000     17.7173943782
 H     58.6581879263     -0.0000000000     20.1158586635
3
# ORCA AIMD Force Step 21, t=10.50 fs, E_Pot=-13310.28052283 kJ mol^-1, Unit is kJ mol^-1 Angstrom^-1
 O      5.0697108895      0.0000000000    -46.3258789497
 H    -44.4143699646     -0.0000000000     21.4740351270
 H     39.3446590751     -0.0000000000     24.8518438227
3
# ORCA AIMD Force Step 22, t=11.00 fs, E_Pot=-13311.07623677 kJ mol^-1, Unit is kJ mol^-1 Angstrom^-1
 O      5.9698368838      0.0000000000    -56.7108234134
 H    -23.3289038536     -0.0000000000     26.3354720236
 H     17.3590669698     -0.0000000000     30.3753513898
3
# ORCA AIMD Force Step 23, t=11.50 fs, E_Pot=-13311.61286739 kJ mol^-1, Unit is kJ mol^-1 Angstrom^-1
 O      6.1605129701      0.0000000000    -66.8334650499
 H     -1.0901786644     -0.0000000000     31.2943067738
 H     -5.0703343057      0.0000000000     35.5391582761
3
# ORCA AIMD Force Step 24, t=12.00 fs, E_Pot=-13311.88325196 kJ mol^-1, Unit is kJ mol^-1 Angstrom^-1
 O      5.5306989445      0.0000000000    -74.0051596760
 H     19.8950507027     -0.0000000000     35.0585525417
 H    -25.4257496472     -0.0000000000     38.9466071343
3
# ORCA AIMD Force Step 25, t=12.50 fs, E_Pot=-13311.96335540 kJ mol^-1, Unit is kJ mol^-1 Angstrom^-1
 O      4.1069706852     -0.0000000000    -75.3953954085
 H     37.1960172980      0.0000000000     36.2227411278
 H    -41.3029879832      0.0000000000     39.1726542807
3
# ORCA AIMD Force Step 26, t=13.00 fs, E_Pot=-13311.95724056 kJ mol^-1, Unit is kJ mol^-1 Angstrom^-1
 O      2.0867313420      0.0000000000    -68.6573882397
 H     48.8346234727     -0.0000000000     33.5622199102
 H    -50.9213548147      0.0000000000     35.0951683295
3
# ORCA AIMD Force Step 27, t=13.50 fs, E_Pot=-13311.92762718 kJ mol^-1, Unit is kJ mol^-1 Angstrom^-1
 O     -0.1912896702      0.0000000000    -52.6007738510
 H     53.7474775373     -0.0000000000     26.3713256568
 H    -53.5561878671      0.0000000000     26.2294481942
3
# ORCA AIMD Force Step 28, t=14.00 fs, E_Pot=-13311.85475366 kJ mol^-1, Unit is kJ mol^-1 Angstrom^-1
 O     -2.3386286777      0.0000000000    -27.6258906190
 H     52.0365537979     -0.0000000000     14.7078546621
 H    -49.6979251202     -0.0000000000     12.9180359568
3
# ORCA AIMD Force Step 29, t=14.50 fs, E_Pot=-13311.65060188 kJ mol^-1, Unit is kJ mol^-1 Angstrom^-1
 O     -4.0292440884      0.0000000000      4.2931562320
 H     44.8873588266     -0.0000000000     -0.5738958818
 H    -40.8581147382     -0.0000000000     -3.7192603502
3
# ORCA AIMD Force Step 30, t=15.00 fs, E_Pot=-13311.21861537 kJ mol^-1, Unit is kJ mol^-1 Angstrom^-1
 O     -5.0739033927      0.0000000000     40.0672572856
 H     34.2013444629     -0.0000000000    -18.0183288919
 H    -29.1274410702      0.0000000000    -22.0489283937
3
# ORCA AIMD Force Step 31, t=15.50 fs, E_Pot=-13310.52039628 kJ mol^-1, Unit is kJ mol^-1 Angstrom^-1
 O     -5.4331451935      0.0000000000     76.1773492855
 H     22.1115729597     -0.0000000000    -35.8982343560
 H    -16.6784277662      0.0000000000    -40.2791149295
3
# ORCA AIMD Force Step 32, t=16.00 fs, E_Pot=-13309.61145707 kJ mol^-1, Unit is kJ mol^-1 Angstrom^-1
 O     -5.1779873745      0.0000000000    109.3060884866
 H     10.5717747376     -0.0000000000    -52.5397777313
 H     -5.3937873631      0.0000000000    -56.7663107553
3
# ORCA AIMD Force Step 33, t=16.50 fs, E_Pot=-13308.63166451 kJ mol^-1, Unit is kJ mol^-1 Angstrom^-1
 O     -4.4329966900      0.0000000000    136.7399595322
 H      1.1195070398     -0.0000000000    -66.5435861617
 H      3.3134896501      0.0000000000    -70.1963733705
3
# ORCA AIMD Force Step 34, t=17.00 fs, E_Pot=-13307.76098271 kJ mol^-1, Unit is kJ mol^-1 Angstrom^-1
 O     -3.3298925312      0.0000000000    156.5173478293
 H     -5.1895544077     -0.0000000000    -76.8778251107
 H      8.5194469390      0.0000000000    -79.6395227186
3
# ORCA AIMD Force Step 35, t=17.50 fs, E_Pot=-13307.16295862 kJ mol^-1, Unit is kJ mol^-1 Angstrom^-1
 O     -1.9834355813     -0.0000000000    167.4040235191
 H     -7.7409638798      0.0000000000    -82.8773944390
 H      9.7243994610      0.0000000000    -84.5266290801
3
# ORCA AIMD Force Step 36, t=18.00 fs, E_Pot=-13306.93698560 kJ mol^-1, Unit is kJ mol^-1 Angstrom^-1
 O     -0.4854382705      0.0000000000    168.8115347430
 H     -6.2914326167     -0.0000000000    -84.2083447551
 H      6.7768708871      0.0000000000    -84.6031899878
3
# ORCA AIMD Force Step 37, t=18.50 fs, E_Pot=-13307.09288175 kJ mol^-1, Unit is kJ mol^-1 Angstrom^-1
 O      1.0672698699      0.0000000000    160.7163115340
 H     -0.8972462270     -0.0000000000    -80.8113188906
 H     -0.1700236430      0.0000000000    -79.9049926434
3
# ORCA AIMD Force Step 38, t=19.00 fs, E_Pot=-13307.55342744 kJ mol^-1, Unit is kJ mol^-1 Angstrom^-1
 O      2.5899263073     -0.0000000000    143.7184815470
 H      8.0507626700      0.0000000000    -72.9494543661
 H    -10.6406889773     -0.0000000000    -70.7690271809
3
# ORCA AIMD Force Step 39, t=19.50 fs, E_Pot=-13308.18400776 kJ mol^-1, Unit is kJ mol^-1 Angstrom^-1
 O      3.9568174819      0.0000000000    119.0780400055
 H     19.8286606144     -0.0000000000    -61.1944303918
 H    -23.7854780963      0.0000000000    -57.8836096137
3
# ORCA AIMD Force Step 40, t=20.00 fs, E_Pot=-13308.84146321 kJ mol^-1, Unit is kJ mol^-1 Angstrom^-1
 O      5.0114647880      0.0000000000     88.8348853204
 H     33.2964308125     -0.0000000000    -46.4972840663
 H    -38.3078956005     -0.0000000000    -42.3376012541
3
# ORCA AIMD Force Step 41, t=20.50 fs, E_Pot=-13309.42658681 kJ mol^-1, Unit is kJ mol^-1 Angstrom^-1
 O      5.5729880749     -0.0000000000     55.8182630133
 H     46.8712054926      0.0000000000    -30.1972959846
 H    -52.4441935675      0.0000000000    -25.6209670287
3
# ORCA AIMD Force Step 42, t=21.00 fs, E_Pot=-13309.91821789 kJ mol^-1, Unit is kJ mol^-1 Angstrom^-1
 O      5.4745542510      0.0000000000     23.4556959495
 H     58.5945136725     -0.0000000000    -13.9448415712
 H    -64.0690679235     -0.0000000000     -9.5108543783
3
# ORCA AIMD Force Step 43, t=21.50 fs, E_Pot=-13310.36852621 kJ mol^-1, Unit is kJ mol^-1 Angstrom^-1
 O      4.6241725557      0.0000000000     -4.6979642262
 H     66.3596734192     -0.0000000000      0.5080573747
 H    -70.9838459748      0.0000000000      4.1899068515
3
# ORCA AIMD Force Step 44, t=22.00 fs, E_Pot=-13310.85508895 kJ mol^-1, Unit is kJ mol^-1 Angstrom^-1
 O      3.0663318456     -0.0000000000    -25.6613724294
 H     68.3038765150     -0.0000000000     11.6357035168
 H    -71.3702083606      0.0000000000     14.0256689127
3
# ORCA AIMD Force Step 45, t=22.50 fs, E_Pot=-13311.41224730 kJ mol^-1, Unit is kJ mol^-1 Angstrom^-1
 O      1.0083077414      0.0000000000    -37.7354906942
 H     63.2693034278     -0.0000000000     18.4893995849
 H    -64.2776111693      0.0000000000     19.2460911094
3
# ORCA AIMD Force Step 46, t=23.00 fs, E_Pot=-13311.98377136 kJ mol^-1, Unit is kJ mol^-1 Angstrom^-1
 O     -1.2177379863     -0.0000000000    -40.9225761170
 H     51.1663810551      0.0000000000     20.9301465173
 H    -49.9486430687      0.0000000000     19.9924295997
3
# ORCA AIMD Force Step 47, t=23.50 fs, E_Pot=-13312.43063629 kJ mol^-1, Unit is kJ mol^-1 Angstrom^-1
 O     -3.2457329206     -0.0000000000    -36.8384005218
 H     33.0574711737      0.0000000000     19.6256996730
 H    -29.8117382531     -0.0000000000     17.2127008488
3
# ORCA AIMD Force Step 48, t=24.00 fs, E_Pot=-13312.59241662 kJ mol^-1, Unit is kJ mol^-1 Angstrom^-1
 O     -4.7767134597     -0.0000000000    -28.1702419514
 H     10.9238793040      0.0000000000     15.8177551482
 H     -6.1471658443      0.0000000000     12.3524868032
3
# ORCA AIMD Force Step 49, t=24.50 fs, E_Pot=-13312.36567589 kJ mol^-1, Unit is kJ mol^-1 Angstrom^-1
 O     -5.6411382159     -0.0000000000    -17.9400003161
 H    -12.7804425212      0.0000000000     10.9713304285
 H     18.4215807371     -0.0000000000      6.9686698876
3
# ORCA AIMD Force Step 50, t=25.00 fs, E_Pot=-13311.75524841 kJ mol^-1, Unit is kJ mol^-1 Angstrom^-1
 O     -5.8038530274     -0.0000000000     -8.8725834069
 H    -35.6003179540      0.0000000000      6.4535998802
 H     41.4041709814      0.0000000000      2.4189835268
3
# ORCA AIMD Force Step 51, t=25.50 fs, E_Pot=-13310.87562046 kJ mol^-1, Unit is kJ mol^-1 Angstrom^-1
 O     -5.3270830869      0.0000000000     -3.0383706943
 H    -55.4234627613     -0.0000000000      3.3362318960
 H     60.7505458482      0.0000000000     -0.2978612017
3
# ORCA AIMD Force Step 52, t=26.00 fs, E_Pot=-13309.90859126 kJ mol^-1, Unit is kJ mol^-1 Angstrom^-1
 O     -4.3216739191     -0.0000000000     -1.7700711215
 H    -70.6435237433      0.0000000000      2.3339898370
 H     74.9651976624      0.0000000000     -0.5639187155
3
# ORCA AIMD Force Step 53, t=26.50 fs, E_Pot=-13309.04066920 kJ mol^-1, Unit is kJ mol^-1 Angstrom^-1
 O     -2.9101087630     -0.0000000000     -5.7495153860
 H    -80.1790822845      0.0000000000      3.8350707286
 H     83.0891910475      0.0000000000      1.9144446574
3
# ORCA AIMD Force Step 54, t=27.00 fs, E_Pot=-13308.40528341 kJ mol^-1, Unit is kJ mol^-1 Angstrom^-1
 O     -1.2114895620      0.0000000000    -15.1429802612
 H    -83.4251791969     -0.0000000000      7.9646030760
 H     84.6366687589     -0.0000000000      7.1783771852
3
# ORCA AIMD Force Step 55, t=27.50 fs, E_Pot=-13308.04763446 kJ mol^-1, Unit is kJ mol^-1 Angstrom^-1
 O      0.6539028298     -0.0000000000    -29.7007853827
 H    -80.2081204780      0.0000000000     14.6368416487
 H     79.5542176482      0.0000000000     15.0639437341
3
# ORCA AIMD Force Step 56, t=28.00 fs, E_Pot=-13307.92110854 kJ mol^-1, Unit is kJ mol^-1 Angstrom^-1
 O      2.5475648121     -0.0000000000    -48.7786552897
 H    -70.7889006259      0.0000000000     23.5718663012
 H     68.2413358138     -0.0000000000     25.2067889885
3
# ORCA AIMD Force Step 57, t=28.50 fs, E_Pot=-13307.91625241 kJ mol^-1, Unit is kJ mol^-1 Angstrom^-1
 O      4.2930927016     -0.0000000000    -71.2780366254
 H    -55.9270302783      0.0000000000     34.2722833742
 H     51.6339375767      0.0000000000     37.0057532512
3
# ORCA AIMD Force Step 58, t=29.00 fs, E_Pot=-13307.91507580 kJ mol^-1, Unit is kJ mol^-1 Angstrom^-1
 O      5.6687152839      0.0000000000    -95.5440633274
 H    -36.9765375718     -0.0000000000     45.9753175607
 H     31.3078222879      0.0000000000     49.5687457667
3
# ORCA AIMD Force Step 59, t=29.50 fs, E_Pot=-13307.85332050 kJ mol^-1, Unit is kJ mol^-1 Angstrom^-1
 O      6.4252344556     -0.0000000000   -119.2895271229
 H    -15.9466718024      0.0000000000     57.6105037485
 H      9.5214373468      0.0000000000     61.6790233744
3
# ORCA AIMD Force Step 60, t=30.00 fs, E_Pot=-13307.76361404 kJ mol^-1, Unit is kJ mol^-1 Angstrom^-1
 O      6.3433576053      0.0000000000   -139.6583915530
 H      4.5751207250     -0.0000000000     67.8161316221
 H    -10.9184783304     -0.0000000000     71.8422599309
3
# ORCA AIMD Force Step 61, t=30.50 fs, E_Pot=-13307.77146688 kJ mol^-1, Unit is kJ mol^-1 Angstrom^-1
 O      5.3193493365     -0.0000000000   -153.5342795326
 H     21.7362380466     -0.0000000000     75.0695680451
 H    -27.0555873831      0.0000000000     78.4647114874
3
# ORCA AIMD Force Step 62, t=31.00 fs, E_Pot=-13308.03382887 kJ mol^-1, Unit is kJ mol^-1 Angstrom^-1
 O      3.4521545543     -0.0000000000   -158.0868292324
 H     32.9352474747      0.0000000000     77.9317200364
 H    -36.3874020290     -0.0000000000     80.1551091960
3
# ORCA AIMD Force Step 63, t=31.50 fs, E_Pot=-13308.64479670 kJ mol^-1, Unit is kJ mol^-1 Angstrom^-1
 O      1.0455899071      0.0000000000   -151.4950959831
 H     36.5170944193     -0.0000000000     75.4078346990
 H    -37.5626843264     -0.0000000000     76.0872612841
3
# ORCA AIMD Force Step 64, t=32.00 fs, E_Pot=-13309.56295937 kJ mol^-1, Unit is kJ mol^-1 Angstrom^-1
 O     -1.4522344523      0.0000000000   -133.4685095295
 H     32.2003301620     -0.0000000000     67.2178410880
 H    -30.7480957097      0.0000000000     66.2506684415
3
# ORCA AIMD Force Step 65, t=32.50 fs, E_Pot=-13310.60913725 kJ mol^-1, Unit is kJ mol^-1 Angstrom^-1
 O     -3.5955656741      0.0000000000   -105.4122557972
 H     21.1843371311     -0.0000000000     53.9215369341
 H    -17.5887714570     -0.0000000000     51.4907188631
3
# ORCA AIMD Force Step 66, t=33.00 fs, E_Pot=-13311.53908332 kJ mol^-1, Unit is kJ mol^-1 Angstrom^-1
 O     -5.0721806265     -0.0000000000    -70.0949817019
 H      5.7779398090      0.0000000000     36.7933398391
 H     -0.7057591824     -0.0000000000     33.3016418628
3
# ORCA AIMD Force Step 67, t=33.50 fs, E_Pot=-13312.14699908 kJ mol^-1, Unit is kJ mol^-1 Angstrom^-1
 O     -5.7597941772      0.0000000000    -31.0040813940
 H    -11.2249594639     -0.0000000000     17.5224625837
 H     16.9847536411      0.0000000000     13.4816188103
3
# ORCA AIMD Force Step 68, t=34.00 fs, E_Pot=-13312.34202702 kJ mol^-1, Unit is kJ mol^-1 Angstrom^-1
 O     -5.7022991029      0.0000000000      8.3296489457
 H    -27.1572020235     -0.0000000000     -2.1264511979
 H     32.8595011264      0.0000000000     -6.2031977478
3
# ORCA AIMD Force Step 69, t=34.50 fs, E_Pot=-13312.16532911 kJ mol^-1, Unit is kJ mol^-1 Angstrom^-1
 O     -5.0401430354     -0.0000000000     44.8162557536
 H    -39.8758911511      0.0000000000    -20.5735214377
 H     44.9160341864      0.0000000000    -24.2427343159
3
# ORCA AIMD Force Step 70, t=35.00 fs, E_Pot=-13311.75238627 kJ mol^-1, Unit is kJ mol^-1 Angstrom^-1
 O     -3.9413341130     -0.0000000000     76.0289832809
 H    -47.9050470375      0.0000000000    -36.5558776027
 H     51.8463811505      0.0000000000    -39.4731056783
3
# ORCA AIMD Force Step 71, t=35.50 fs, E_Pot=-13311.26754058 kJ mol^-1, Unit is kJ mol^-1 Angstrom^-1
 O     -2.5583556235     -0.0000000000    100.2218947984
 H    -50.3965011772      0.0000000000    -49.1514350647
 H     52.9548568007      0.0000000000    -51.0704597337
3
# ORCA AIMD Force Step 72, t=36.00 fs, E_Pot=-13310.84008422 kJ mol^-1, Unit is kJ mol^-1 Angstrom^-1
 O     -1.0143130263     -0.0000000000    116.2515193952
 H    -47.0166229361      0.0000000000    -57.7458130057
 H     48.0309359623      0.0000000000    -58.5057063895
3
# ORCA AIMD Force Step 73, t=36.50 fs, E_Pot=-13310.52229481 kJ mol^-1, Unit is kJ mol^-1 Angstrom^-1
 O      0.5900905319     -0.0000000000    123.5030015679
 H    -37.8447842271     -0.0000000000    -61.9940251593
 H     37.2546936952      0.0000000000    -61.5089764086
3
# ORCA AIMD Force Step 74, t=37.00 fs, E_Pot=-13310.27931552 kJ mol^-1, Unit is kJ mol^-1 Angstrom^-1
 O      2.1581989404      0.0000000000    121.8844800204
 H    -23.3287272895     -0.0000000000    -61.8115260161
 H     21.1705283491     -0.0000000000    -60.0729540043
3
# ORCA AIMD Force Step 75, t=37.50 fs, E_Pot=-13310.01243420 kJ mol^-1, Unit is kJ mol^-1 Angstrom^-1
 O      3.5788970538     -0.0000000000    111.9153145854
 H     -4.3065960349      0.0000000000    -57.4107647485
 H      0.7276989810     -0.0000000000    -54.5045498369
3
# ORCA AIMD Force Step 76, t=38.00 fs, E_Pot=-13309.60995463 kJ mol^-1, Unit is kJ mol^-1 Angstrom^-1
 O      4.7138950464     -0.0000000000     94.8853802387
 H     17.9248265536      0.0000000000    -49.3755134049
 H    -22.6387216000      0.0000000000    -45.5098668338
3
# ORCA AIMD Force Step 77, t=38.50 fs, E_Pot=-13309.01109264 kJ mol^-1, Unit is kJ mol^-1 Angstrom^-1
 O      5.4016230803     -0.0000000000     73.0034216648
 H     41.5489025388      0.0000000000    -38.7365599707
 H    -46.9505256191      0.0000000000    -34.2668616942
3
# ORCA AIMD Force Step 78, t=39.00 fs, E_Pot=-13308.25855438 kJ mol^-1, Unit is kJ mol^-1 Angstrom^-1
 O      5.4839824084     -0.0000000000     49.4030063544
 H     64.2509431930      0.0000000000    -26.9865203683
 H    -69.7349256013     -0.0000000000    -22.4164859861
3
# ORCA AIMD Force Step 79, t=39.50 fs, E_Pot=-13307.51067785 kJ mol^-1, Unit is kJ mol^-1 Angstrom^-1
 O      4.8578045671      0.0000000000     27.8583521434
 H     83.4002346742     -0.0000000000    -15.9619335701
 H    -88.2580392413     -0.0000000000    -11.8964185733
3
# ORCA AIMD Force Step 80, t=40.00 fs, E_Pot=-13306.99418757 kJ mol^-1, Unit is kJ mol^-1 Angstrom^-1
 O      3.5341902710     -0.0000000000     12.1369405430
 H     96.4320677419      0.0000000000     -7.5479309337
 H    -99.9662580130      0.0000000000     -4.5890096093
3
# ORCA AIMD Force Step 81, t=40.50 fs, E_Pot=-13306.90817899 kJ mol^-1, Unit is kJ mol^-1 Angstrom^-1
 O      1.6739874693      0.0000000000      5.1017078620
 H    101.3754033436     -0.0000000000     -3.2465043593
 H   -103.0493908129      0.0000000000     -1.8552035027
3
# ORCA AIMD Force Step 82, t=41.00 fs, E_Pot=-13307.32544196 kJ mol^-1, Unit is kJ mol^-1 Angstrom^-1
 O     -0.4322058015      0.0000000000      7.8962302244
 H     97.3496293048     -0.0000000000     -3.7591617428
 H    -96.9174235033     -0.0000000000     -4.1370684816
3
# ORCA AIMD Force Step 83, t=41.50 fs, E_Pot=-13308.14926749 kJ mol^-1, Unit is kJ mol^-1 Angstrom^-1
 O     -2.4352893630      0.0000000000     19.5984031369
 H     84.8139006441     -0.0000000000     -8.7805715990
 H    -82.3786112812     -0.0000000000    -10.8178315379
3
# ORCA AIMD Force Step 84, t=42.00 fs, E_Pot=-13309.15414466 kJ mol^-1, Unit is kJ mol^-1 Angstrom^-1
 O     -4.0353436881     -0.0000000000     37.5155947586
 H     65.4592721270     -0.0000000000    -17.0928002256
 H    -61.4239284389      0.0000000000    -20.4227945330
3
# ORCA AIMD Force Step 85, t=42.50 fs, E_Pot=-13310.08599293 kJ mol^-1, Unit is kJ mol^-1 Angstrom^-1
 O     -5.0443899109      0.0000000000     57.9834819777
 H     41.7727781244     -0.0000000000    -26.9391398640
 H    -36.7283882135     -0.0000000000    -31.0443421137
3
# ORCA AIMD Force Step 86, t=43.00 fs, E_Pot=-13310.76393757 kJ mol^-1, Unit is kJ mol^-1 Angstrom^-1
 O     -5.4071903071      0.0000000000     77.2683347308
 H     16.4942790846     -0.0000000000    -36.4669047198
 H    -11.0870887775     -0.0000000000    -40.8014300110
3
# ORCA AIMD Force Step 87, t=43.50 fs, E_Pot=-13311.13409671 kJ mol^-1, Unit is kJ mol^-1 Angstrom^-1
 O     -5.1704243765      0.0000000000     92.2427476259
 H     -7.8442237886     -0.0000000000    -44.0821856603
 H     13.0146481651     -0.0000000000    -48.1605619656
3
# ORCA AIMD Force Step 88, t=44.00 fs, E_Pot=-13311.26108782 kJ mol^-1, Unit is kJ mol^-1 Angstrom^-1
 O     -4.4341633864     -0.0000000000    100.6951722595
 H    -29.1834169472      0.0000000000    -48.6280821338
 H     33.6175803336     -0.0000000000    -52.0670901258
3
# ORCA AIMD Force Step 89, t=44.50 fs, E_Pot=-13311.27482742 kJ mol^-1, Unit is kJ mol^-1 Angstrom^-1
 O     -3.3108274009      0.0000000000    101.3347522405
 H    -46.0117944167     -0.0000000000    -49.4056216620
 H     49.3226218176      0.0000000000    -51.9291305785
3
# ORCA AIMD Force Step 90, t=45.00 fs, E_Pot=-13311.30262109 kJ mol^-1, Unit is kJ mol^-1 Angstrom^-1
 O     -1.9029219718      0.0000000000     93.6400320980
 H    -57.3210429207     -0.0000000000    -46.1074807537
 H     59.2239648925     -0.0000000000    -47.5325513442
3
# ORCA AIMD Force Step 91, t=45.50 fs, E_Pot=-13311.41261949 kJ mol^-1, Unit is kJ mol^-1 Angstrom^-1
 O     -0.3016275279     -0.0000000000     77.6902922630
 H    -62.5299981723     -0.0000000000    -38.7338412135
 H     62.8316257002      0.0000000000    -38.9564510495
3
# ORCA AIMD Force Step 92, t=46.00 fs, E_Pot=-13311.58473172 kJ mol^-1, Unit is kJ mol^-1 Angstrom^-1
 O      1.4008213313      0.0000000000     54.0625828503
 H    -61.4378924226     -0.0000000000    -27.5358186975
 H     60.0370710913     -0.0000000000    -26.5267641528
3
# ORCA AIMD Force Step 93, t=46.50 fs, E_Pot=-13311.71586544 kJ mol^-1, Unit is kJ mol^-1 Angstrom^-1
 O      3.0890031624     -0.0000000000     23.8264572956
 H    -54.2430297651      0.0000000000    -13.0053686449
 H     51.1540266027     -0.0000000000    -10.8210886508
3
# ORCA AIMD Force Step 94, t=47.00 fs, E_Pot=-13311.65883571 kJ mol^-1, Unit is kJ mol^-1 Angstrom^-1
 O      4.6044881315      0.0000000000    -11.3876355516
 H    -41.6305772644     -0.0000000000      4.0965035131
 H     37.0260891329     -0.0000000000      7.2911320384
3
# ORCA AIMD Force Step 95, t=47.50 fs, E_Pot=-13311.28598317 kJ mol^-1, Unit is kJ mol^-1 Angstrom^-1
 O      5.7381195231     -0.0000000000    -49.2973877649
 H    -24.8983716258      0.0000000000     22.6952639066
 H     19.1602521027      0.0000000000     26.6021238583
3
# ORCA AIMD Force Step 96, t=48.00 fs, E_Pot=-13310.55772498 kJ mol^-1, Unit is kJ mol^-1 Angstrom^-1
 O      6.2508224603      0.0000000000    -86.9530478807
 H     -6.0458465839     -0.0000000000     41.3868683511
 H     -0.2049758764     -0.0000000000     45.5661795296
3
# ORCA AIMD Force Step 97, t=48.50 fs, E_Pot=-13309.56598975 kJ mol^-1, Unit is kJ mol^-1 Angstrom^-1
 O      5.9337143287     -0.0000000000   -120.9092125804
 H     12.2840118204      0.0000000000     58.5043956710
 H    -18.2177261491     -0.0000000000     62.4048169094
3
# ORCA AIMD Force Step 98, t=49.00 fs, E_Pot=-13308.52250795 kJ mol^-1, Unit is kJ mol^-1 Angstrom^-1
 O      4.6988382923      0.0000000000   -147.6598907492
 H     27.1136574347     -0.0000000000     72.3094185221
 H    -31.8124957269     -0.0000000000     75.3504722270
3
# ORCA AIMD Force Step 99, t=49.50 fs, E_Pot=-13307.68293407 kJ mol^-1, Unit is kJ mol^-1 Angstrom^-1
 O      2.6606554810      0.0000000000   -164.2969472330
 H     35.7070573554     -0.0000000000     81.3005023454
 H    -38.3677128364      0.0000000000     82.9964448876
3
# ORCA AIMD Force Step 100, t=50.00 fs, E_Pot=-13307.23682374 kJ mol^-1, Unit is kJ mol^-1 Angstrom^-1
 O      0.1517238802      0.0000000000   -169.1894907150
 H     36.2645008439     -0.0000000000     84.5529698299
 H    -36.4162247241      0.0000000000     84.6365208851
3
# ORCA AIMD Force Step 101, t=50.50 fs, E_Pot=-13307.22435072 kJ mol^-1, Unit is kJ mol^-1 Angstrom^-1
 O     -2.3648273681      0.0000000000   -162.3963538532
 H     28.4578268393     -0.0000000000     81.9545342608
 H    -26.0929994712     -0.0000000000     80.4418195924
3
# ORCA AIMD Force Step 102, t=51.00 fs, E_Pot=-13307.53128737 kJ mol^-1, Unit is kJ mol^-1 Angstrom^-1
 O     -4.4239175436     -0.0000000000   -145.6154981911
 H     13.5322087627      0.0000000000     74.2132027865
 H     -9.1082912190      0.0000000000     71.4022954046
3
# ORCA AIMD Force Step 103, t=51.50 fs, E_Pot=-13307.96351579 kJ mol^-1, Unit is kJ mol^-1 Angstrom^-1
 O     -5.7329611324     -0.0000000000   -121.6574345384
 H     -6.0659642741     -0.0000000000     62.6511516847
 H     11.7989254065      0.0000000000     59.0062828537
3
# ORCA AIMD Force Step 104, t=52.00 fs, E_Pot=-13308.35134218 kJ mol^-1, Unit is kJ mol^-1 Angstrom^-1
 O     -6.1859291649     -0.0000000000    -93.7723027524
 H    -27.3532141867      0.0000000000     48.8611239365
 H     33.5391433516     -0.0000000000     44.9111788158
3
# ORCA AIMD Force Step 105, t=52.50 fs, E_Pot=-13308.62330586 kJ mol^-1, Unit is kJ mol^-1 Angstrom^-1
 O     -5.8519366945      0.0000000000    -65.0284888420
 H    -47.4576310440     -0.0000000000     34.3958939469
 H     53.3095677385      0.0000000000     30.6325948950
3
# ORCA AIMD Force Step 106, t=53.00 fs, E_Pot=-13308.81875836 kJ mol^-1, Unit is kJ mol^-1 Angstrom^-1
 O     -4.8957031976      0.0000000000    -37.9577588186
 H    -64.0422558766     -0.0000000000     20.5673492157
 H     68.9379590742      0.0000000000     17.3904096029
3
# ORCA AIMD Force Step 107, t=53.50 fs, E_Pot=-13309.04714807 kJ mol^-1, Unit is kJ mol^-1 Angstrom^-1
 O     -3.5068025775      0.0000000000    -14.4519581512
 H    -75.4619488095     -0.0000000000      8.3749906847
 H     78.9687513870     -0.0000000000      6.0769674665
3
# ORCA AIMD Force Step 108, t=54.00 fs, E_Pot=-13309.42308064 kJ mol^-1, Unit is kJ mol^-1 Angstrom^-1
 O     -1.8574585005      0.0000000000      4.1810521636
 H    -80.7297404459     -0.0000000000     -1.4777895972
 H     82.5871989464      0.0000000000     -2.7032625664
3
# ORCA AIMD Force Step 109, t=54.50 fs, E_Pot=-13310.00657860 kJ mol^-1, Unit is kJ mol^-1 Angstrom^-1
 O     -0.0923572485      0.0000000000     17.1139940371
 H    -79.4053335941     -0.0000000000     -8.5347534217
 H     79.4976908427      0.0000000000     -8.5792406155
3
# ORCA AIMD Force Step 110, t=55.00 fs, E_Pot=-13310.76795419 kJ mol^-1, Unit is kJ mol^-1 Angstrom^-1
 O      1.6622421974      0.0000000000     23.9314380362
 H    -71.5024443462     -0.0000000000    -12.5491231550
 H     69.8402021488     -0.0000000000    -11.3823148811
3
# ORCA AIMD Force Step 111, t=55.50 fs, E_Pot=-13311.58598248 kJ mol^-1, Unit is kJ mol^-1 Angstrom^-1
 O      3.2792740455      0.0000000000     24.6416773842
 H    -57.4521283707     -0.0000000000    -13.4828818258
 H     54.1728543252     -0.0000000000    -11.1587955584
3
# ORCA AIMD Force Step 112, t=56.00 fs, E_Pot=-13312.27960863 kJ mol^-1, Unit is kJ mol^-1 Angstrom^-1
 O      4.6151048788     -0.0000000000     19.7743135483
 H    -38.1337746584      0.0000000000    -11.5492297701
 H     33.5186697796      0.0000000000     -8.2250837783
3
# ORCA AIMD Force Step 113, t=56.50 fs, E_Pot=-13312.66567192 kJ mol^-1, Unit is kJ mol^-1 Angstrom^-1
 O      5.5068421696      0.0000000000     10.5303116976
 H    -14.9404804129     -0.0000000000     -7.2851840025
 H      9.4336382432     -0.0000000000     -3.2451276951
3
# ORCA AIMD Force Step 114, t=57.00 fs, E_Pot=-13312.62605707 kJ mol^-1, Unit is kJ mol^-1 Angstrom^-1
 O      5.7922953826      0.0000000000     -1.0957827179
 H     10.1828591143     -0.0000000000     -1.6186559380
 H    -15.9751544969      0.0000000000      2.7144386559
3
# ORCA AIMD Force Step 115, t=57.50 fs, E_Pot=-13312.15891757 kJ mol^-1, Unit is kJ mol^-1 Angstrom^-1
 O      5.3542549612      0.0000000000    -12.3485356083
 H     34.8133180582     -0.0000000000      4.1313958909
 H    -40.1675730194      0.0000000000      8.2171397174
3
# ORCA AIMD Force Step 116, t=58.00 fs, E_Pot=-13311.38709546 kJ mol^-1, Unit is kJ mol^-1 Angstrom^-1
 O      4.1780902392      0.0000000000    -20.0221382461
 H     56.3045227970     -0.0000000000      8.3855372066
 H    -60.4826130362     -0.0000000000     11.6366010395
3
# ORCA AIMD Force Step 117, t=58.50 fs, E_Pot=-13310.51109750 kJ mol^-1, Unit is kJ mol^-1 Angstrom^-1
 O      2.3952698440     -0.0000000000    -21.0812569970
 H     72.2229107144      0.0000000000      9.5913990367
 H    -74.6181805584     -0.0000000000     11.4898579603
3
# ORCA AIMD Force Step 118, t=59.00 fs, E_Pot=-13309.72363556 kJ mol^-1, Unit is kJ mol^-1 Angstrom^-1
 O      0.2793860543     -0.0000000000    -13.4512586900
 H     80.8607501786      0.0000000000      6.6131575661
 H    -81.1401362328      0.0000000000      6.8381011239
3
# ORCA AIMD Force Step 119, t=59.50 fs, E_Pot=-13309.13043692 kJ mol^-1, Unit is kJ mol^-1 Angstrom^-1
 O     -1.8179056310     -0.0000000000      3.3276192498
 H     81.6337217905      0.0000000000     -0.9204493233
 H    -79.8158161594      0.0000000000     -2.4071699265
3
# ORCA AIMD Force Step 120, t=60.00 fs, E_Pot=-13308.72284443 kJ mol^-1, Unit is kJ mol^-1 Angstrom^-1
 O     -3.5663011593      0.0000000000     27.8940776283
 H     75.1845828654     -0.0000000000    -12.4719863994
 H    -71.6182817061      0.0000000000    -15.4220912288
3
# ORCA AIMD Force Step 121, t=60.50 fs, E_Pot=-13308.41510706 kJ mol^-1, Unit is kJ mol^-1 Angstrom^-1
 O     -4.7428780142     -0.0000000000     57.4126880867
 H     63.1457560698      0.0000000000    -26.7281608846
 H    -58.4028780556      0.0000000000    -30.6845272021
3
# ORCA AIMD Force Step 122, t=61.00 fs, E_Pot=-13308.11768985 kJ mol^-1, Unit is kJ mol^-1 Angstrom^-1
 O     -5.2643113626      0.0000000000     88.2939095472
 H     47.6875636609     -0.0000000000    -41.9397453105
 H    -42.4232522983      0.0000000000    -46.3541642367
3
# ORCA AIMD Force Step 123, t=61.50 fs, E_Pot=-13307.80028699 kJ mol^-1, Unit is kJ mol^-1 Angstrom^-1
 O     -5.1662677217     -0.0000000000    116.9623562312
 H     31.0437988034      0.0000000000    -56.3102757736
 H    -25.8775310816     -0.0000000000    -60.6520804576
3
# ORCA AIMD Force Step 124, t=62.00 fs, E_Pot=-13307.51307730 kJ mol^-1, Unit is kJ mol^-1 Angstrom^-1
 O     -4.5533508139      0.0000000000    140.4087641714
 H     15.1708676127     -0.0000000000    -68.2922002435
 H    -10.6175167988     -0.0000000000    -72.1165639279
3
# ORCA AIMD Force Step 125, t=62.50 fs, E_Pot=-13307.36363132 kJ mol^-1, Unit is kJ mol^-1 Angstrom^-1
 O     -3.5505616217     -0.0000000000    156.4380866746
 H      1.5884735416      0.0000000000    -76.7327794999
 H      1.9620880801      0.0000000000    -79.7053071747
3
# ORCA AIMD Force Step 126, t=63.00 fs, E_Pot=-13307.46773314 kJ mol^-1, Unit is kJ mol^-1 Angstrom^-1
 O     -2.2734473012     -0.0000000000    163.6785703360
 H     -8.6362932432      0.0000000000    -80.8931864866
 H     10.9097405443     -0.0000000000    -82.7853838494
3
# ORCA AIMD Force Step 127, t=63.50 fs, E_Pot=-13307.89765624 kJ mol^-1, Unit is kJ mol^-1 Angstrom^-1
 O     -0.8188473446      0.0000000000    161.4768920904
 H    -14.8336656564     -0.0000000000    -80.4011480925
 H     15.6525130010     -0.0000000000    -81.0757439979
3
# ORCA AIMD Force Step 128, t=64.00 fs, E_Pot=-13308.64625433 kJ mol^-1, Unit is kJ mol^-1 Angstrom^-1
 O      0.7278222393      0.0000000000    149.7960283809
 H    -16.6733731527     -0.0000000000    -75.1977517288
 H     15.9455509134      0.0000000000    -74.5982766521
3
# ORCA AIMD Force Step 129, t=64.50 fs, E_Pot=-13309.61716979 kJ mol^-1, Unit is kJ mol^-1 Angstrom^-1
 O      2.2760537275      0.0000000000    129.1713711611
 H    -14.1411689300     -0.0000000000    -65.5091888928
 H     11.8651152024      0.0000000000    -63.6621822683
3
# ORCA AIMD Force Step 130, t=65.00 fs, E_Pot=-13310.64421605 kJ mol^-1, Unit is kJ mol^-1 Angstrom^-1
 O      3.7116555453      0.0000000000    100.7493957997
 H     -7.5692869538     -0.0000000000    -51.8590951641
 H      3.8576314085      0.0000000000    -48.8903006356
3
# ORCA AIMD Force Step 131, t=65.50 fs, E_Pot=-13311.53626392 kJ mol^-1, Unit is kJ mol^-1 Angstrom^-1
 O      4.8830570576      0.0000000000     66.3700337548
 H      2.2880792834     -0.0000000000    -35.1062249914
 H     -7.1711363410      0.0000000000    -31.2638087634
3
# ORCA AIMD Force Step 132, t=66.00 fs, E_Pot=-13312.13608717 kJ mol^-1, Unit is kJ mol^-1 Angstrom^-1
 O      5.6051961175      0.0000000000     28.6124912356
 H     14.1770121780     -0.0000000000    -16.4712254790
 H    -19.7822082955     -0.0000000000    -12.1412657566
3
# ORCA AIMD Force Step 133, t=66.50 fs, E_Pot=-13312.37304506 kJ mol^-1, Unit is kJ mol^-1 Angstrom^-1
 O      5.6895197457     -0.0000000000     -9.2998524217
 H     26.3288979064      0.0000000000      2.4970032031
 H    -32.0184176521      0.0000000000      6.8028492186
3
# ORCA AIMD Force Step 134, t=67.00 fs, E_Pot=-13312.28511548 kJ mol^-1, Unit is kJ mol^-1 Angstrom^-1
 O      5.0032674829     -0.0000000000    -43.8301382410
 H     36.5899058660      0.0000000000     20.0638403129
 H    -41.5931733489      0.0000000000     23.7662979281
3
# ORCA AIMD Force Step 135, t=67.50 fs, E_Pot=-13311.99354788 kJ mol^-1, Unit is kJ mol^-1 Angstrom^-1
 O      3.5414331614      0.0000000000    -71.7031518349
 H     42.7456392349     -0.0000000000     34.5732143545
 H    -46.2870723963      0.0000000000     37.1299374805
3
# ORCA AIMD Force Step 136, t=68.00 fs, E_Pot=-13311.63659006 kJ mol^-1, Unit is kJ mol^-1 Angstrom^-1
 O      1.4741010881      0.0000000000    -90.5901488317
 H     43.0042032254     -0.0000000000     44.7801867700
 H    -44.4783043135     -0.0000000000     45.8099620618
3
# ORCA AIMD Force Step 137, t=68.50 fs, E_Pot=-13311.29652914 kJ mol^-1, Unit is kJ mol^-1 Angstrom^-1
 O     -0.8682269403      0.0000000000    -99.6405343670
 H     36.4821885224     -0.0000000000     50.1309334918
 H    -35.6139615821      0.0000000000     49.5096008752
3
# ORCA AIMD Force Step 138, t=69.00 fs, E_Pot=-13310.96400328 kJ mol^-1, Unit is kJ mol^-1 Angstrom^-1
 O     -3.0818240109      0.0000000000    -99.6273113206
 H     23.4955186011     -0.0000000000     50.8715004452
 H    -20.4136945902     -0.0000000000     48.7558108754
3
# ORCA AIMD Force Step 139, t=69.50 fs, E_Pot=-13310.56151809 kJ mol^-1, Unit is kJ mol^-1 Angstrom^-1
 O     -4.8069502437     -0.0000000000    -92.6204972760
 H      5.5003434504      0.0000000000     47.9243424683
 H     -0.6933932067     -0.0000000000     44.6961548078
3
# ORCA AIMD Force Step 140, t=70.00 fs, E_Pot=-13310.00864130 kJ mol^-1, Unit is kJ mol^-1 Angstrom^-1
 O     -5.8178899076      0.0000000000    -81.3641362618
 H    -15.2755483787     -0.0000000000     42.6012466626
 H     21.0934382863     -0.0000000000     38.7628895992
3
# ORCA AIMD Force Step 141, t=70.50 fs, E_Pot=-13309.28634034 kJ mol^-1, Unit is kJ mol^-1 Angstrom^-1
 O     -6.0493619965      0.0000000000    -68.6299760439
 H    -36.3399379760     -0.0000000000     36.2816112659
 H     42.3892999725      0.0000000000     32.3483647780
3
# ORCA AIMD Force Step 142, t=71.00 fs, E_Pot=-13308.46448934 kJ mol^-1, Unit is kJ mol^-1 Angstrom^-1
 O     -5.5646575589      0.0000000000    -56.7588689768
 H    -55.3875662665     -0.0000000000     30.1674032222
 H     60.9522238254      0.0000000000     26.5914657546
3
# ORCA AIMD Force Step 143, t=71.50 fs, E_Pot=-13307.68335682 kJ mol^-1, Unit is kJ mol^-1 Angstrom^-1
 O     -4.4984205899      0.0000000000    -47.4762477017
 H    -70.5663716057     -0.0000000000     25.1702542242
 H     75.0647921956     -0.0000000000     22.3059934775
3
# ORCA AIMD Force Step 144, t=72.00 fs, E_Pot=-13307.10409896 kJ mol^-1, Unit is kJ mol^-1 Angstrom^-1
 O     -3.0080048967     -0.0000000000    -41.8838197651
 H    -80.5797662628      0.0000000000     21.8924379966
 H     83.5877711595     -0.0000000000     19.9913817685
3
# ORCA AIMD Force Step 145, t=72.50 fs, E_Pot=-13306.85263453 kJ mol^-1, Unit is kJ mol^-1 Angstrom^-1
 O     -1.2457461797      0.0000000000    -40.5664560265
 H    -84.6592075886     -0.0000000000     20.6727573234
 H     85.9049537683      0.0000000000     19.8936987032
3
# ORCA AIMD Force Step 146, t=73.00 fs, E_Pot=-13306.97784588 kJ mol^-1, Unit is kJ mol^-1 Angstrom^-1
 O      0.6436722543      0.0000000000    -43.6889417843
 H    -82.5087154552     -0.0000000000     21.6355783815
 H     81.8650432009      0.0000000000     22.0533634028
3
# ORCA AIMD Force Step 147, t=73.50 fs, E_Pot=-13307.43655730 kJ mol^-1, Unit is kJ mol^-1 Angstrom^-1
 O      2.5116545337      0.0000000000    -51.0332886057
 H    -74.2779333658     -0.0000000000     24.7142013685
 H     71.7662788321      0.0000000000     26.3190872373
3
# ORCA AIMD Force Step 148, t=74.00 fs, E_Pot=-13308.10921888 kJ mol^-1, Unit is kJ mol^-1 Angstrom^-1
 O      4.1887447484      0.0000000000    -61.9622191265
 H    -60.5786081649     -0.0000000000     29.6392165317
 H     56.3898634166     -0.0000000000     32.3230025948
3
# ORCA AIMD Force Step 149, t=74.50 fs, E_Pot=-13308.84221562 kJ mol^-1, Unit is kJ mol^-1 Angstrom^-1
 O      5.4774710462      0.0000000000    -75.3210742778
 H    -42.5467191171     -0.0000000000     35.8932253768
 H     37.0692480709      0.0000000000     39.4278489010
3
# ORCA AIMD Force Step 150, t=75.00 fs, E_Pot=-13309.50406719 kJ mol^-1, Unit is kJ mol^-1 Angstrom^-1
 O      6.1728298025     -0.0000000000    -89.3529447711
 H    -21.8754218889      0.0000000000     42.6626931377
 H     15.7025920864      0.0000000000     46.6902516334
3
# ORCA AIMD Force Step 151, t=75.50 fs, E_Pot=-13310.03413692 kJ mol^-1, Unit is kJ mol^-1 Angstrom^-1
 O      6.0909645463      0.0000000000   -101.6595282429
 H     -0.7939697399     -0.0000000000     48.8147614236
 H     -5.2969948063     -0.0000000000     52.8447668193
3
# ORCA AIMD Force Step 152, t=76.00 fs, E_Pot=-13310.45915706 kJ mol^-1, Unit is kJ mol^-1 Angstrom^-1
 O      5.1548913071      0.0000000000   -109.4542436107
 H     18.1831034875     -0.0000000000     52.9928760002
 H    -23.3379947947      0.0000000000     56.4613676104
3
# ORCA AIMD Force Step 153, t=76.50 fs, E_Pot=-13310.86279994 kJ mol^-1, Unit is kJ mol^-1 Angstrom^-1
 O      3.4474085561      0.0000000000   -109.9810826105
 H     32.6484059635     -0.0000000000     53.8082597353
 H    -36.0958145196      0.0000000000     56.1728228752
3
# ORCA AIMD Force Step 154, t=77.00 fs, E_Pot=-13311.31869624 kJ mol^-1, Unit is kJ mol^-1 Angstrom^-1
 O      1.2318650692     -0.0000000000   -101.1796327171
 H     40.8380825830      0.0000000000     50.1582463578
 H    -42.0699476521      0.0000000000     51.0213863593
3
# ORCA AIMD Force Step 155, t=77.50 fs, E_Pot=-13311.82454456 kJ mol^-1, Unit is kJ mol^-1 Angstrom^-1
 O     -1.1033035103      0.0000000000    -82.3032021834
 H     42.0813750116     -0.0000000000     41.5458204656
 H    -40.9780715013     -0.0000000000     40.7573817178
3
# ORCA AIMD Force Step 156, t=78.00 fs, E_Pot=-13312.28072998 kJ mol^-1, Unit is kJ mol^-1 Angstrom^-1
 O     -3.1576943399     -0.0000000000    -54.2311215329
 H     36.9661858329      0.0000000000     28.2694763395
 H    -33.8084914930     -0.0000000000     25.9616451934
3
# ORCA AIMD Force Step 157, t=78.50 fs, E_Pot=-13312.53011699 kJ mol^-1, Unit is kJ mol^-1 Angstrom^-1
 O     -4.6338229980     -0.0000000000    -19.3180026999
 H     27.1342356645      0.0000000000     11.3887579482
 H    -22.5004126665     -0.0000000000      7.9292447517
3
# ORCA AIMD Force Step 158, t=79.00 fs, E_Pot=-13312.43506905 kJ mol^-1, Unit is kJ mol^-1 Angstrom^-1
 O     -5.3954915555     -0.0000000000     19.1448772686
 H     14.8129134543      0.0000000000     -7.5177649075
 H     -9.4174218989     -0.0000000000    -11.6271123612
3
# ORCA AIMD Force Step 159, t=79.50 fs, E_Pot=-13311.94606283 kJ mol^-1, Unit is kJ mol^-1 Angstrom^-1
 O     -5.4585161013     -0.0000000000     57.6117916229
 H      2.2887090811      0.0000000000    -26.6891288094
 H      3.1698070202      0.0000000000    -30.9226628135
3
# ORCA AIMD Force Step 160, t=80.00 fs, E_Pot=-13311.12730276 kJ mol^-1, Unit is kJ mol^-1 Angstrom^-1
 O     -4.9356119090      0.0000000000     92.8513509884
 H     -8.4858847738     -0.0000000000    -44.4808418502
 H     13.4214966828      0.0000000000    -48.3705091382
3
# ORCA AIMD Force Step 161, t=80.50 fs, E_Pot=-13310.13361221 kJ mol^-1, Unit is kJ mol^-1 Angstrom^-1
 O     -3.9748870695      0.0000000000    122.2712035677
 H    -16.0802155973     -0.0000000000    -59.5481151797
 H     20.0551026668      0.0000000000    -62.7230883881
3
# ORCA AIMD Force Step 162, t=81.00 fs, E_Pot=-13309.15631621 kJ mol^-1, Unit is kJ mol^-1 Angstrom^-1
 O     -2.7171792510     -0.0000000000    144.0099596404
 H    -19.6014965396      0.0000000000    -70.9087026515
 H     22.3186757906      0.0000000000    -73.1012569889
3
# ORCA AIMD Force Step 163, t=81.50 fs, E_Pot=-13308.36328214 kJ mol^-1, Unit is kJ mol^-1 Angstrom^-1
 O     -1.2787127783      0.0000000000    156.8901155565
 H    -18.6212816494     -0.0000000000    -77.9277959832
 H     19.8999944277     -0.0000000000    -78.9623195734
3
# ORCA AIMD Force Step 164, t=82.00 fs, E_Pot=-13307.85351584 kJ mol^-1, Unit is kJ mol^-1 Angstrom^-1
 O      0.2453443465      0.0000000000    160.3382978406
 H    -13.0886824332     -0.0000000000    -80.2784186946
 H     12.8433380868     -0.0000000000    -80.0598791460
3
# ORCA AIMD Force Step 165, t=82.50 fs, E_Pot=-13307.63787947 kJ mol^-1, Unit is kJ mol^-1 Angstrom^-1
 O      1.7700825262      0.0000000000    154.3499912977
 H     -3.2834217329     -0.0000000000    -77.9212959927
 H      1.5133392067     -0.0000000000    -76.4286953050
3
# ORCA AIMD Force Step 166, t=83.00 fs, E_Pot=-13307.64949872 kJ mol^-1, Unit is kJ mol^-1 Angstrom^-1
 O      3.1851865806      0.0000000000    139.5386510363
 H     10.1847391748     -0.0000000000    -71.1095909881
 H    -13.3699257554      0.0000000000    -68.4290600483
3
# ORCA AIMD Force Step 167, t=83.50 fs, E_Pot=-13307.78059369 kJ mol^-1, Unit is kJ mol^-1 Angstrom^-1
 O      4.3746697541     -0.0000000000    117.2409458889
 H     26.3171102906      0.0000000000    -60.4615239432
 H    -30.6917800447      0.0000000000    -56.7794219457
3
# ORCA AIMD Force Step 168, t=84.00 fs, E_Pot=-13307.93506322 kJ mol^-1, Unit is kJ mol^-1 Angstrom^-1
 O      5.1806186591     -0.0000000000     89.6341161057
 H     43.6770968662      0.0000000000    -46.9934209706
 H    -48.8577155253      0.0000000000    -42.6406951351
3
# ORCA AIMD Force Step 169, t=84.50 fs, E_Pot=-13308.07789129 kJ mol^-1, Unit is kJ mol^-1 Angstrom^-1
 O      5.4385035821     -0.0000000000     59.7342014465
 H     60.3783757769      0.0000000000    -32.1414334522
 H    -65.8168793590     -0.0000000000    -27.5927679944
3
# ORCA AIMD Force Step 170, t=85.00 fs, E_Pot=-13308.25712829 kJ mol^-1, Unit is kJ mol^-1 Angstrom^-1
 O      5.0185421897     -0.0000000000     31.1506400938
 H     74.2041988184      0.0000000000    -17.6575622943
 H    -79.2227410081      0.0000000000    -13.4930777996
3
# ORCA AIMD Force Step 171, t=85.50 fs, E_Pot=-13308.57976111 kJ mol^-1, Unit is kJ mol^-1 Angstrom^-1
 O      3.8856055941     -0.0000000000      7.5268577201
 H     82.9018853974      0.0000000000     -5.3565572297
 H    -86.7874909916      0.0000000000     -2.1703004904
3
# ORCA AIMD Force Step 172, t=86.00 fs, E_Pot=-13309.14451283 kJ mol^-1, Unit is kJ mol^-1 Angstrom^-1
 O      2.1476146791     -0.0000000000     -8.2480104156
 H     84.6318270221      0.0000000000      3.2596152378
 H    -86.7794417012      0.0000000000      4.9883951778
3
# ORCA AIMD Force Step 173, t=86.50 fs, E_Pot=-13309.96460112 kJ mol^-1, Unit is kJ mol^-1 Angstrom^-1
 O      0.0590185979      0.0000000000    -14.7840228974
 H     78.4415014983     -0.0000000000      7.3783114988
 H    -78.5005200961      0.0000000000      7.4057113986
3
# ORCA AIMD Force Step 174, t=87.00 fs, E_Pot=-13310.92876411 kJ mol^-1, Unit is kJ mol^-1 Angstrom^-1
 O     -2.0379990506     -0.0000000000    -12.5572420115
 H     64.5767035551      0.0000000000      7.0906427600
 H    -62.5387045045      0.0000000000      5.4665992515
3
# ORCA AIMD Force Step 175, t=87.50 fs, E_Pot=-13311.83024433 kJ mol^-1, Unit is kJ mol^-1 Angstrom^-1
 O     -3.8097424917      0.0000000000     -3.7032729319
 H     44.4676651761     -0.0000000000      3.3319611034
 H    -40.6579226843      0.0000000000      0.3713118285
3
# ORCA AIMD Force Step 176, t=88.00 fs, E_Pot=-13312.45003222 kJ mol^-1, Unit is kJ mol^-1 Angstrom^-1
 O     -5.0180405599      0.0000000000      8.6518095834
 H     20.3992199480     -0.0000000000     -2.4184294026
 H    -15.3811793881     -0.0000000000     -6.2333801808
3
# ORCA AIMD Force Step 177, t=88.50 fs, E_Pot=-13312.64688159 kJ mol^-1, Unit is kJ mol^-1 Angstrom^-1
 O     -5.5586989206     -0.0000000000     21.2059526982
 H     -4.9896759672      0.0000000000     -8.5343796143
 H     10.5483748877      0.0000000000    -12.6715730840
3
# ORCA AIMD Force Step 178, t=89.00 fs, E_Pot=-13312.40763124 kJ mol^-1, Unit is kJ mol^-1 Angstrom^-1
 O     -5.4463924869     -0.0000000000     31.1233516246
 H    -29.1774051768     -0.0000000000    -13.5762470450
 H     34.6237976637      0.0000000000    -17.5471045796
3
# ORCA AIMD Force Step 179, t=89.50 fs, E_Pot=-13311.84016368 kJ mol^-1, Unit is kJ mol^-1 Angstrom^-1
 O     -4.7699076934     -0.0000000000     36.3549779816
 H    -50.0661095015      0.0000000000    -16.4728832425
 H     54.8360171948      0.0000000000    -19.8820947392
3
# ORCA AIMD Force Step 180, t=90.00 fs, E_Pot=-13311.12195855 kJ mol^-1, Unit is kJ mol^-1 Angstrom^-1
 O     -3.6462519949     -0.0000000000     35.6712419615
 H    -66.0982009883      0.0000000000    -16.5571378303
 H     69.7444529832     -0.0000000000    -19.1141041312
3
# ORCA AIMD Force Step 181, t=90.50 fs, E_Pot=-13310.43179991 kJ mol^-1, Unit is kJ mol^-1 Angstrom^-1
 O     -2.1915199140     -0.0000000000     28.5360363719
 H    -76.2406848746      0.0000000000    -13.5135647824
 H     78.4322047886      0.0000000000    -15.0224715895
3
# ORCA AIMD Force Step 182, t=91.00 fs, E_Pot=-13309.89059380 kJ mol^-1, Unit is kJ mol^-1 Angstrom^-1
 O     -0.5136094749     -0.0000000000     14.9514346244
 H    -79.9197316813      0.0000000000     -7.3024919406
 H     80.4333411562     -0.0000000000     -7.6489426838
3
# ORCA AIMD Force Step 183, t=91.50 fs, E_Pot=-13309.52827421 kJ mol^-1, Unit is kJ mol^-1 Angstrom^-1
 O      1.2778206135      0.0000000000     -4.6453593815
 H    -76.9743393526     -0.0000000000      1.8955522617
 H     75.6965187391     -0.0000000000      2.7498071198
3
# ORCA AIMD Force Step 184, t=92.00 fs, E_Pot=-13309.28457089 kJ mol^-1, Unit is kJ mol^-1 Angstrom^-1
 O      3.0525731023     -0.0000000000    -29.3997385125
 H    -67.6689308749      0.0000000000     13.6952956873
 H     64.6163577726      0.0000000000     15.7044428252
3
# ORCA AIMD Force Step 185, t=92.50 fs, E_Pot=-13309.04366461 kJ mol^-1, Unit is kJ mol^-1 Angstrom^-1
 O      4.6390288215     -0.0000000000    -57.9702459889
 H    -52.7769185492      0.0000000000     27.4783321561
 H     48.1378897277      0.0000000000     30.4919138329
3
# ORCA AIMD Force Step 186, t=93.00 fs, E_Pot=-13308.69441804 kJ mol^-1, Unit is kJ mol^-1 Angstrom^-1
 O      5.8188147966      0.0000000000    -88.4273515882
 H    -33.6984486159     -0.0000000000     42.3441821074
 H     27.8796338193      0.0000000000     46.0831694808
3
# ORCA AIMD Force Step 187, t=93.50 fs, E_Pot=-13308.19702992 kJ mol^-1, Unit is kJ mol^-1 Angstrom^-1
 O      6.3496027708     -0.0000000000   -118.1962452348
 H    -12.5392601379      0.0000000000     57.0750851229
 H      6.1896573671      0.0000000000     61.1211601119
3
# ORCA AIMD Force Step 188, t=94.00 fs, E_Pot=-13307.62645233 kJ mol^-1, Unit is kJ mol^-1 Angstrom^-1
 O      6.0272953422      0.0000000000   -144.1584960463
 H      7.9624331265     -0.0000000000     70.1693331858
 H    -13.9897284687      0.0000000000     73.9891628605
3
# ORCA AIMD Force Step 189, t=94.50 fs, E_Pot=-13307.16231689 kJ mol^-1, Unit is kJ mol^-1 Angstrom^-1
 O      4.7766877304      0.0000000000   -163.0080094442
 H     24.7643231281     -0.0000000000     79.9939154118
 H    -29.5410108585      0.0000000000     83.0140940324
3
# ORCA AIMD Force Step 190, t=95.00 fs, E_Pot=-13307.01552768 kJ mol^-1, Unit is kJ mol^-1 Angstrom^-1
 O      2.7259948434     -0.0000000000   -171.8637705230
 H     35.1196947345      0.0000000000     85.0707319897
 H    -37.8456895779     -0.0000000000     86.7930385334
3
# ORCA AIMD Force Step 191, t=95.50 fs, E_Pot=-13307.32086941 kJ mol^-1, Unit is kJ mol^-1 Angstrom^-1
 O      0.2327266466      0.0000000000   -168.9527237240
 H     37.2493806299     -0.0000000000     84.4054242851
 H    -37.4821072765      0.0000000000     84.5472994389
3
# ORCA AIMD Force Step 192, t=96.00 fs, E_Pot=-13308.05673360 kJ mol^-1, Unit is kJ mol^-1 Angstrom^-1
 O     -2.2440357733     -0.0000000000   -154.1598288045
 H     30.9306570505      0.0000000000     77.8055099168
 H    -28.6866212772     -0.0000000000     76.3543188876
3
# ORCA AIMD Force Step 193, t=96.50 fs, E_Pot=-13309.04478861 kJ mol^-1, Unit is kJ mol^-1 Angstrom^-1
 O     -4.2570741824      0.0000000000   -129.0525442624
 H     17.5069828334     -0.0000000000     65.9158222719
 H    -13.2499086510      0.0000000000     63.1367219905
3
# ORCA AIMD Force Step 194, t=97.00 fs, E_Pot=-13310.03112311 kJ mol^-1, Unit is kJ mol^-1 Angstrom^-1
 O     -5.5205465979      0.0000000000    -96.4935348852
 H     -0.4905742250     -0.0000000000     50.0728399570
 H      6.0111208229      0.0000000000     46.4206949282
3
# ORCA AIMD Force Step 195, t=97.50 fs, E_Pot=-13310.79807581 kJ mol^-1, Unit is kJ mol^-1 Angstrom^-1
 O     -5.9518366198      0.0000000000    -59.9547565789
 H    -20.0373624479     -0.0000000000     31.9764114369
 H     25.9891990677     -0.0000000000     27.9783451421
3
# ORCA AIMD Force Step 196, t=98.00 fs, E_Pot=-13311.24404268 kJ mol^-1, Unit is kJ mol^-1 Angstrom^-1
 O     -5.6337531558      0.0000000000    -22.8577703135
 H    -38.2725963429     -0.0000000000     13.3521540018
 H     43.9063494987      0.0000000000      9.5056163116
3
# ORCA AIMD Force Step 197, t=98.50 fs, E_Pot=-13311.39881488 kJ mol^-1, Unit is kJ mol^-1 Angstrom^-1
 O     -4.7360198021      0.0000000000     11.8632225175
 H    -52.9149213941     -0.0000000000     -4.2880304234
 H     57.6509411962      0.0000000000     -7.5751920942
3
# ORCA AIMD Force Step 198, t=99.00 fs, E_Pot=-13311.38208664 kJ mol^-1, Unit is kJ mol^-1 Angstrom^-1
 O     -3.4444270013      0.0000000000     41.9338689259
 H    -62.4004035372     -0.0000000000    -19.7530334622
 H     65.8448305384      0.0000000000    -22.1808354636
3
# ORCA AIMD Force Step 199, t=99.50 fs, E_Pot=-13311.33509886 kJ mol^-1, Unit is kJ mol^-1 Angstrom^-1
 O     -1.9207576974      0.0000000000     65.7235953013
 H    -65.8293944007     -0.0000000000    -32.1775011126
 H     67.7501520980      0.0000000000    -33.5460941887
3
# ORCA AIMD Force Step 200, t=100.00 fs, E_Pot=-13311.35609632 kJ mol^-1, Unit is kJ mol^-1 Angstrom^-1
 O     -0.2935145113     -0.0000000000     82.1536391163
 H    -62.8406901427      0.0000000000    -40.9797542928
 H     63.1342046540      0.0000000000    -41.1738848235
