43
-65.150000
Zn -0.04410187110735006022 0.00377658877252001757 0.03932941359937008885
N  0.02524916864645962433 -0.68786152981892001446 1.96110679053988001819
C  -0.85154561169007991772 -1.86668046639640938800 1.99975875037532913048
C  -2.10279719281656962693 -1.55698435070961060944 1.18778484377289994534
N  -1.68901776963401939469 -1.19348016643613008547 -0.17480259604305983800
H  0.92586824900044906173 -0.93740562376875979922 2.35746813977505897952
H  -0.37108867960858948898 0.01333408738401037352 2.58316834936810879597
H  -0.32915757412226098744 -2.70954381646639985703 1.54552525690016007154
H  -1.12987004279971015031 -2.14110607746370007476 3.02080932127152967936
H  -2.61985844413571911105 -0.70807590514214047150 1.63714279384242011872
H  -2.77578490625622009702 -2.41855127491669152917 1.19971368662229038726
H  -1.42206108641188988528 -2.04896832977998988312 -0.65764862092375941938
H  -2.49445267478545895656 -0.82922901362247036783 -0.67401207760356951493
O  -0.13537121413112976342 0.67070588918505003040 -1.90617823242293948915
H  -0.74268959670906919968 0.35180569225390001531 -2.58302367973466973083
H  0.17208440299790062067 1.53689317850875006854 -2.19871059096952015111
O  1.60540417835261939317 1.21119195296198944867 0.27759806401850889435
H  2.22170910495211826330 1.42503894034116918021 -0.43284893710503913322
H  2.06315780948859872623 1.40034391862611085067 1.10430570992350940429
O  1.21147670175139876569 -1.49045436859065905111 -0.67267118581210993966
H  1.38897694783305913901 -1.54946145812915903051 -1.61891794607718964016
H  2.00359252873058846234 -1.81276336423094930339 -0.22825286313454953846
O  -1.18295915266938900245 1.64901056528781975175 0.60538982869190993696
H  -2.00573679698775908520 1.91617965644035948003 0.18053035736094005803
H  -0.75661499098799911422 2.46181716581032894453 0.90205941556449986685
O  3.57731923270680729487 -2.37614412397075058792 0.53422666895547399335
H  3.61526923926014509547 -3.30067480781562583303 0.79853515099696537050
H  4.36727754466960771396 -2.19774911275447415449 0.01235734277801964209
O  -1.98602413674212052719 -0.23843734370532845834 -3.64136585729600792405
H  -2.76272617954332933010 -0.21459891466448510755 -3.05380118266249311887
H  -2.03010249735917058800 -1.05655564382611899532 -4.14201327884956871372
O  -3.62852602101917742772 2.46471319057729942870 -0.44975124194115156939
H  -4.25443784161634130925 2.72147339230894047546 0.23538751370845950595
H  -3.57503035037643712712 3.19390648194292259276 -1.07721651274939489440
O  2.86395859834725774462 -0.42679867189463588373 2.45281574130840640535
H  3.20168640897493395059 -1.09239816449790372310 1.83140356587756492068
H  3.46570363315827467687 -0.40459206442736117548 3.19994056513217284277
O  -3.92920705502679901144 -0.04691106381520793178 -1.67214488106218372998
H  -4.86056529379174406813 -0.28430712272511537986 -1.68377921209643077738
H  -3.86573760071647809511 0.86546254241602860180 -1.33754563416322813652
O  0.90241761733598213624 3.08106287059419203800 -2.76625527078256139291
H  1.08695709841164811493 3.98064814141676714954 -2.48144812541555914720
H  0.80879853953087788021 3.08745685447848039473 -3.72274396311172051099
