28
Energy -39.673533
Zn -0.04410187110735006022 0.00377658877252001757 0.03932941359937008885
N  0.02524916864645962433 -0.68786152981892001446 1.96110679053988001819
C  -0.85154561169007991772 -1.86668046639640938800 1.99975875037532913048
C  -2.10279719281656962693 -1.55698435070961060944 1.18778484377289994534
N  -1.68901776963401939469 -1.19348016643613008547 -0.17480259604305983800
H  0.92586824900044906173 -0.93740562376875979922 2.35746813977505897952
H  -0.37108867960858948898 0.01333408738401037352 2.58316834936810879597
H  -0.32915757412226098744 -2.70954381646639985703 1.54552525690016007154
H  -1.12987004279971015031 -2.14110607746370007476 3.02080932127152967936
H  -2.61985844413571911105 -0.70807590514214047150 1.63714279384242011872
H  -2.77578490625622009702 -2.41855127491669152917 1.19971368662229038726
H  -1.42206108641188988528 -2.04896832977998988312 -0.65764862092375941938
H  -2.49445267478545895656 -0.82922901362247036783 -0.67401207760356951493
O  -0.13537121413112976342 0.67070588918505003040 -1.90617823242293948915
H  -0.74268959670906919968 0.35180569225390001531 -2.58302367973466973083
H  0.17208440299790062067 1.53689317850875006854 -2.19871059096952015111
O  1.60540417835261939317 1.21119195296198944867 0.27759806401850889435
H  2.22170910495211826330 1.42503894034116918021 -0.43284893710503913322
H  2.06315780948859872623 1.40034391862611085067 1.10430570992350940429
O  1.21147670175139876569 -1.49045436859065905111 -0.67267118581210993966
H  1.38897694783305913901 -1.54946145812915903051 -1.61891794607718964016
H  2.00359252873058846234 -1.81276336423094930339 -0.22825286313454953846
O  -1.18295915266938900245 1.64901056528781975175 0.60538982869190993696
H  -2.00573679698775908520 1.91617965644035948003 0.18053035736094005803
H  -0.75661499098799911422 2.46181716581032894453 0.90205941556449986685
O  3.27908018779081977812 -2.74274450144524895023 0.61405662744429756472
H  3.20408785996019140896 -3.68479336474198904128 0.78721592521481908999
H  4.20149408494085729870 -2.56394081748203106486 0.41332655537228302212
31
Energy -44.770142
Zn -0.04410187110735006022 0.00377658877252001757 0.03932941359937008885
N  0.02524916864645962433 -0.68786152981892001446 1.96110679053988001819
C  -0.85154561169007991772 -1.86668046639640938800 1.99975875037532913048
C  -2.10279719281656962693 -1.55698435070961060944 1.18778484377289994534
N  -1.68901776963401939469 -1.19348016643613008547 -0.17480259604305983800
H  0.92586824900044906173 -0.93740562376875979922 2.35746813977505897952
H  -0.37108867960858948898 0.01333408738401037352 2.58316834936810879597
H  -0.32915757412226098744 -2.70954381646639985703 1.54552525690016007154
H  -1.12987004279971015031 -2.14110607746370007476 3.02080932127152967936
H  -2.61985844413571911105 -0.70807590514214047150 1.63714279384242011872
H  -2.77578490625622009702 -2.41855127491669152917 1.19971368662229038726
H  -1.42206108641188988528 -2.04896832977998988312 -0.65764862092375941938
H  -2.49445267478545895656 -0.82922901362247036783 -0.67401207760356951493
O  -0.13537121413112976342 0.67070588918505003040 -1.90617823242293948915
H  -0.74268959670906919968 0.35180569225390001531 -2.58302367973466973083
H  0.17208440299790062067 1.53689317850875006854 -2.19871059096952015111
O  1.60540417835261939317 1.21119195296198944867 0.27759806401850889435
H  2.22170910495211826330 1.42503894034116918021 -0.43284893710503913322
H  2.06315780948859872623 1.40034391862611085067 1.10430570992350940429
O  1.21147670175139876569 -1.49045436859065905111 -0.67267118581210993966
H  1.38897694783305913901 -1.54946145812915903051 -1.61891794607718964016
H  2.00359252873058846234 -1.81276336423094930339 -0.22825286313454953846
O  -1.18295915266938900245 1.64901056528781975175 0.60538982869190993696
H  -2.00573679698775908520 1.91617965644035948003 0.18053035736094005803
H  -0.75661499098799911422 2.46181716581032894453 0.90205941556449986685
O  3.29545779472138766764 -2.64701201357502435840 0.63294255247956665578
H  3.24466559357339612291 -3.60203217877600723185 0.72393567172225659068
H  4.22146959978055402729 -2.42186261150387194263 0.51045391845874976688
O  -2.35784602453847824677 -0.26443932552784293888 -3.20159196831159054142
H  -2.99744106130860687998 0.34607997514062693867 -3.57710275301027680328
H  -2.40184248285831447589 -1.06949320509470369167 -3.72423134747059547678
34
Energy -49.863002
Zn -0.04410187110735006022 0.00377658877252001757 0.03932941359937008885
N  0.02524916864645962433 -0.68786152981892001446 1.96110679053988001819
C  -0.85154561169007991772 -1.86668046639640938800 1.99975875037532913048
C  -2.10279719281656962693 -1.55698435070961060944 1.18778484377289994534
N  -1.68901776963401939469 -1.19348016643613008547 -0.17480259604305983800
H  0.92586824900044906173 -0.93740562376875979922 2.35746813977505897952
H  -0.37108867960858948898 0.01333408738401037352 2.58316834936810879597
H  -0.32915757412226098744 -2.70954381646639985703 1.54552525690016007154
H  -1.12987004279971015031 -2.14110607746370007476 3.02080932127152967936
H  -2.61985844413571911105 -0.70807590514214047150 1.63714279384242011872
H  -2.77578490625622009702 -2.41855127491669152917 1.19971368662229038726
H  -1.42206108641188988528 -2.04896832977998988312 -0.65764862092375941938
H  -2.49445267478545895656 -0.82922901362247036783 -0.67401207760356951493
O  -0.13537121413112976342 0.67070588918505003040 -1.90617823242293948915
H  -0.74268959670906919968 0.35180569225390001531 -2.58302367973466973083
H  0.17208440299790062067 1.53689317850875006854 -2.19871059096952015111
O  1.60540417835261939317 1.21119195296198944867 0.27759806401850889435
H  2.22170910495211826330 1.42503894034116918021 -0.43284893710503913322
H  2.06315780948859872623 1.40034391862611085067 1.10430570992350940429
O  1.21147670175139876569 -1.49045436859065905111 -0.67267118581210993966
H  1.38897694783305913901 -1.54946145812915903051 -1.61891794607718964016
H  2.00359252873058846234 -1.81276336423094930339 -0.22825286313454953846
O  -1.18295915266938900245 1.64901056528781975175 0.60538982869190993696
H  -2.00573679698775908520 1.91617965644035948003 0.18053035736094005803
H  -0.75661499098799911422 2.46181716581032894453 0.90205941556449986685
O  3.46368604513031463910 -2.50108739384607092759 0.63972488141940198059
H  3.55987331001332663050 -3.44796745768323065207 0.76423441566158623051
H  4.32732660100314525664 -2.11324352089867950610 0.80244285739724663387
O  -1.90964589316372501671 -0.46710438581526481094 -3.69802893156951917319
H  -2.56351999181577028253 -0.04915922021973911926 -4.26181553989542649674
H  -1.77371903545913434108 -1.35222021733892772133 -4.04400716420807615492
O  -3.64074452593319231042 2.34227781946438540217 -0.81617801231591724509
H  -4.53502840842700116752 2.02265975359493355157 -0.67571217872778877034
H  -3.71503089039930722848 3.09588389331769420210 -1.40775917536700601040
37
Energy -54.959606
Zn -0.04410187110735006022 0.00377658877252001757 0.03932941359937008885
N  0.02524916864645962433 -0.68786152981892001446 1.96110679053988001819
C  -0.85154561169007991772 -1.86668046639640938800 1.99975875037532913048
C  -2.10279719281656962693 -1.55698435070961060944 1.18778484377289994534
N  -1.68901776963401939469 -1.19348016643613008547 -0.17480259604305983800
H  0.92586824900044906173 -0.93740562376875979922 2.35746813977505897952
H  -0.37108867960858948898 0.01333408738401037352 2.58316834936810879597
H  -0.32915757412226098744 -2.70954381646639985703 1.54552525690016007154
H  -1.12987004279971015031 -2.14110607746370007476 3.02080932127152967936
H  -2.61985844413571911105 -0.70807590514214047150 1.63714279384242011872
H  -2.77578490625622009702 -2.41855127491669152917 1.19971368662229038726
H  -1.42206108641188988528 -2.04896832977998988312 -0.65764862092375941938
H  -2.49445267478545895656 -0.82922901362247036783 -0.67401207760356951493
O  -0.13537121413112976342 0.67070588918505003040 -1.90617823242293948915
H  -0.74268959670906919968 0.35180569225390001531 -2.58302367973466973083
H  0.17208440299790062067 1.53689317850875006854 -2.19871059096952015111
O  1.60540417835261939317 1.21119195296198944867 0.27759806401850889435
H  2.22170910495211826330 1.42503894034116918021 -0.43284893710503913322
H  2.06315780948859872623 1.40034391862611085067 1.10430570992350940429
O  1.21147670175139876569 -1.49045436859065905111 -0.67267118581210993966
H  1.38897694783305913901 -1.54946145812915903051 -1.61891794607718964016
H  2.00359252873058846234 -1.81276336423094930339 -0.22825286313454953846
O  -1.18295915266938900245 1.64901056528781975175 0.60538982869190993696
H  -2.00573679698775908520 1.91617965644035948003 0.18053035736094005803
H  -0.75661499098799911422 2.46181716581032894453 0.90205941556449986685
O  3.50592112415474010945 -2.36779430558775372262 0.69633479582911261829
H  3.51351632979990480266 -3.27415882848916872661 1.01865459047570627860
H  4.35452868367675982597 -2.21540366681049372133 0.26880829952935397786
O  -1.92187654589948264672 -0.48166486864001334389 -3.60987537080087106389
H  -2.56643106721180691565 0.04205218991022660613 -4.09218185938655665268
H  -1.66402300480579001807 -1.20792779540412253958 -4.18480429392821307033
O  -3.51285392689856301729 2.30754555010002571080 -0.71807254035884016119
H  -4.39939829877557730953 2.14061099133106313985 -0.38755872324473905621
H  -3.54318475626538731404 3.14845051465045200345 -1.18376075070447628335
O  2.82507559415737619091 -0.37487505626204264964 2.57151882231001982504
H  3.16761748910301843551 -1.06501652851451411586 1.97831475855969940447
H  3.37375270255909898154 -0.37165878351866765694 3.35816809294458895607
40
Energy -60.057864
Zn -0.04410187110735006022 0.00377658877252001757 0.03932941359937008885
N  0.02524916864645962433 -0.68786152981892001446 1.96110679053988001819
C  -0.85154561169007991772 -1.86668046639640938800 1.99975875037532913048
C  -2.10279719281656962693 -1.55698435070961060944 1.18778484377289994534
N  -1.68901776963401939469 -1.19348016643613008547 -0.17480259604305983800
H  0.92586824900044906173 -0.93740562376875979922 2.35746813977505897952
H  -0.37108867960858948898 0.01333408738401037352 2.58316834936810879597
H  -0.32915757412226098744 -2.70954381646639985703 1.54552525690016007154
H  -1.12987004279971015031 -2.14110607746370007476 3.02080932127152967936
H  -2.61985844413571911105 -0.70807590514214047150 1.63714279384242011872
H  -2.77578490625622009702 -2.41855127491669152917 1.19971368662229038726
H  -1.42206108641188988528 -2.04896832977998988312 -0.65764862092375941938
H  -2.49445267478545895656 -0.82922901362247036783 -0.67401207760356951493
O  -0.13537121413112976342 0.67070588918505003040 -1.90617823242293948915
H  -0.74268959670906919968 0.35180569225390001531 -2.58302367973466973083
H  0.17208440299790062067 1.53689317850875006854 -2.19871059096952015111
O  1.60540417835261939317 1.21119195296198944867 0.27759806401850889435
H  2.22170910495211826330 1.42503894034116918021 -0.43284893710503913322
H  2.06315780948859872623 1.40034391862611085067 1.10430570992350940429
O  1.21147670175139876569 -1.49045436859065905111 -0.67267118581210993966
H  1.38897694783305913901 -1.54946145812915903051 -1.61891794607718964016
H  2.00359252873058846234 -1.81276336423094930339 -0.22825286313454953846
O  -1.18295915266938900245 1.64901056528781975175 0.60538982869190993696
H  -2.00573679698775908520 1.91617965644035948003 0.18053035736094005803
H  -0.75661499098799911422 2.46181716581032894453 0.90205941556449986685
O  3.56078605512985379988 -2.37086705235486849830 0.54169299522965863591
H  3.59057973266133467760 -3.29855419885340239716 0.79120414269208860780
H  4.33217063222812370782 -2.20542739878628291095 -0.00879477671483439027
O  -1.94940835898833020323 -0.20396632746822396243 -3.68222969895877438873
H  -2.71719690334732399961 -0.16463664072628814150 -3.08129715147478666637
H  -2.02482363648753205254 -1.01946445592267331826 -4.17964098939452810555
O  -3.61047002441584474752 2.44657904205443443857 -0.45765718583392001051
H  -4.24099997680760232299 2.63614511928525052653 0.24312255471246549399
H  -3.57821500662165048468 3.21609144546067327042 -1.03477192406956097770
O  2.85870120019310114401 -0.39870347534310263127 2.45913605488500142116
H  3.17913707079047336279 -1.06372835518685571188 1.82714293158871621259
H  3.47106811866774567221 -0.39823232929007457148 3.19612588071183578720
O  -3.87150177066808875992 -0.03892056098748417070 -1.71680844937608667600
H  -4.79745011182378533476 -0.28055271915722995724 -1.78251952206552322089
H  -3.82580145113858671735 0.86633181520966140443 -1.35717669871611978927
43
Energy -65.150000
Zn -0.04410187110735006022 0.00377658877252001757 0.03932941359937008885
N  0.02524916864645962433 -0.68786152981892001446 1.96110679053988001819
C  -0.85154561169007991772 -1.86668046639640938800 1.99975875037532913048
C  -2.10279719281656962693 -1.55698435070961060944 1.18778484377289994534
N  -1.68901776963401939469 -1.19348016643613008547 -0.17480259604305983800
H  0.92586824900044906173 -0.93740562376875979922 2.35746813977505897952
H  -0.37108867960858948898 0.01333408738401037352 2.58316834936810879597
H  -0.32915757412226098744 -2.70954381646639985703 1.54552525690016007154
H  -1.12987004279971015031 -2.14110607746370007476 3.02080932127152967936
H  -2.61985844413571911105 -0.70807590514214047150 1.63714279384242011872
H  -2.77578490625622009702 -2.41855127491669152917 1.19971368662229038726
H  -1.42206108641188988528 -2.04896832977998988312 -0.65764862092375941938
H  -2.49445267478545895656 -0.82922901362247036783 -0.67401207760356951493
O  -0.13537121413112976342 0.67070588918505003040 -1.90617823242293948915
H  -0.74268959670906919968 0.35180569225390001531 -2.58302367973466973083
H  0.17208440299790062067 1.53689317850875006854 -2.19871059096952015111
O  1.60540417835261939317 1.21119195296198944867 0.27759806401850889435
H  2.22170910495211826330 1.42503894034116918021 -0.43284893710503913322
H  2.06315780948859872623 1.40034391862611085067 1.10430570992350940429
O  1.21147670175139876569 -1.49045436859065905111 -0.67267118581210993966
H  1.38897694783305913901 -1.54946145812915903051 -1.61891794607718964016
H  2.00359252873058846234 -1.81276336423094930339 -0.22825286313454953846
O  -1.18295915266938900245 1.64901056528781975175 0.60538982869190993696
H  -2.00573679698775908520 1.91617965644035948003 0.18053035736094005803
H  -0.75661499098799911422 2.46181716581032894453 0.90205941556449986685
O  3.57731923270680729487 -2.37614412397075058792 0.53422666895547399335
H  3.61526923926014509547 -3.30067480781562583303 0.79853515099696537050
H  4.36727754466960771396 -2.19774911275447415449 0.01235734277801964209
O  -1.98602413674212052719 -0.23843734370532845834 -3.64136585729600792405
H  -2.76272617954332933010 -0.21459891466448510755 -3.05380118266249311887
H  -2.03010249735917058800 -1.05655564382611899532 -4.14201327884956871372
O  -3.62852602101917742772 2.46471319057729942870 -0.44975124194115156939
H  -4.25443784161634130925 2.72147339230894047546 0.23538751370845950595
H  -3.57503035037643712712 3.19390648194292259276 -1.07721651274939489440
O  2.86395859834725774462 -0.42679867189463588373 2.45281574130840640535
H  3.20168640897493395059 -1.09239816449790372310 1.83140356587756492068
H  3.46570363315827467687 -0.40459206442736117548 3.19994056513217284277
O  -3.92920705502679901144 -0.04691106381520793178 -1.67214488106218372998
H  -4.86056529379174406813 -0.28430712272511537986 -1.68377921209643077738
H  -3.86573760071647809511 0.86546254241602860180 -1.33754563416322813652
O  0.90241761733598213624 3.08106287059419203800 -2.76625527078256139291
H  1.08695709841164811493 3.98064814141676714954 -2.48144812541555914720
H  0.80879853953087788021 3.08745685447848039473 -3.72274396311172051099
