61
# ORCA AIMD Velocity Step 0, t=0.00 fs, E_Pot=-266377.21362912 kJ mol^-1, Unit is Angstrom fs^-1
Zn      0.0003656627     -0.0020802629      0.0004899146
 O     -0.0004486378      0.0010470654     -0.0033944548
 H     -0.0141941250     -0.0083821302     -0.0280196731
 H      0.0080460382      0.0244668890      0.0166133688
 O     -0.0092023567      0.0024226314     -0.0007311753
 H      0.0064894172      0.0093469432      0.0122414828
 H     -0.0078769609     -0.0098745584      0.0398643393
 O      0.0039823496      0.0000299898     -0.0002344780
 H      0.0089213486     -0.0030748643      0.0274484785
 H      0.0006804249      0.0280045066     -0.0004994537
 O     -0.0044507047     -0.0044471364     -0.0035517396
 H     -0.0143799290      0.0175164127      0.0016972853
 H      0.0203024036      0.0034632711     -0.0226198504
 O     -0.0015294462     -0.0016000325      0.0021823193
 H      0.0284463787      0.0102133153      0.0235615103
 H     -0.0046972296      0.0040625395      0.0211910872
 O      0.0036634361      0.0016674878     -0.0014563054
 H     -0.0076329805     -0.0212378001      0.0187953534
 H      0.0170399136     -0.0030090699     -0.0146672612
 O      0.0010864158      0.0071076984     -0.0067440280
 H     -0.0059025063     -0.0123680284     -0.0265517721
 H      0.0088001940      0.0365896764      0.0033393459
 O      0.0003336812     -0.0010413119     -0.0007551729
 H     -0.0025613399     -0.0080358025      0.0065918728
 H      0.0223973334      0.0013986245      0.0041102559
 O      0.0069293063      0.0018121802      0.0028783517
 H     -0.0093515497     -0.0164083845     -0.0245013719
 H     -0.0211642062      0.0106154459     -0.0160824811
 O      0.0032014053      0.0096232859     -0.0016824416
 H      0.0031016782      0.0110431440      0.0225309049
 H     -0.0010816918     -0.0131686096     -0.0211125926
 O      0.0023467059      0.0033336027      0.0042242002
 H     -0.0152244749     -0.0046429983      0.0275198480
 H      0.0049833045      0.0039815067     -0.0031965494
 O     -0.0043263617      0.0002595686     -0.0014307547
 H      0.0015549169      0.0056590700     -0.0035136702
 H     -0.0038907505     -0.0154637720     -0.0032347047
 O      0.0018974418     -0.0062025549     -0.0029594377
 H     -0.0264384990     -0.0020311433      0.0373814246
 H     -0.0085339837      0.0143207072     -0.0182209606
 O     -0.0003840742     -0.0043865342     -0.0057261267
 H     -0.0063713475     -0.0071561591     -0.0045918875
 H      0.0209797337     -0.0042146973     -0.0186301622
 O     -0.0037665313     -0.0017811409      0.0049008067
 H     -0.0084690524      0.0274498074      0.0059768444
 H      0.0089140759      0.0333780792      0.0042539104
 O     -0.0017939409     -0.0008633139     -0.0021464564
 H      0.0054622307     -0.0088826418      0.0263634064
 H      0.0472754929      0.0032431898      0.0029288895
 O      0.0028820432     -0.0000914175     -0.0023063178
 H      0.0036245694     -0.0107903431     -0.0078457687
 H     -0.0059625877      0.0314196114     -0.0145278838
 O     -0.0021503417     -0.0028336145      0.0076938829
 H     -0.0148591186      0.0063483313     -0.0056657300
 H     -0.0128151017      0.0065113767      0.0195815858
 O      0.0020539147     -0.0053511567      0.0062406715
 H     -0.0124883943     -0.0192383274     -0.0117639766
 H     -0.0210673954     -0.0095484350     -0.0069106466
 O     -0.0027825591      0.0039411143     -0.0025341131
 H     -0.0051897285     -0.0137101220      0.0116169353
 H      0.0284336860     -0.0048703022      0.0063321618
61
# ORCA AIMD Velocity Step 2000, t=500.00 fs, E_Pot=-267176.22342225 kJ mol^-1, Unit is Angstrom fs^-1
Zn     -0.0058075730      0.0003653813     -0.0069378396
 O     -0.0044152977     -0.0040705752      0.0069263556
 H      0.0013132413     -0.0094364968      0.0035809600
 H     -0.0056190005      0.0087109133     -0.0051123866
 O      0.0018153638     -0.0003246942     -0.0019379215
 H      0.0216112110      0.0221106415     -0.0070325987
 H      0.0219836723     -0.0259890288      0.0038054203
 O      0.0047857523     -0.0138447419     -0.0040100065
 H     -0.0174717494     -0.0262385921     -0.0139538333
 H      0.0032641695     -0.0168470345     -0.0115457804
 O      0.0046801281      0.0056318050     -0.0025307245
 H      0.0090031519      0.0091646326     -0.0228740555
 H      0.0039226478      0.0095232514     -0.0084239075
 O      0.0022136867      0.0012400675      0.0054003682
 H     -0.0160580059      0.0036653876      0.0038115574
 H     -0.0131793334     -0.0109073527      0.0352384825
 O      0.0004054922      0.0023930300      0.0119895000
 H      0.0110066093      0.0169482855     -0.0183604275
 H     -0.0052486961     -0.0249784985      0.0261674311
 O     -0.0030016773     -0.0065336355      0.0016448272
 H     -0.0035105704     -0.0032827609      0.0091607608
 H     -0.0029923153      0.0250043941     -0.0048778688
 O      0.0000891657     -0.0016626462      0.0047638772
 H      0.0057371871      0.0068122530     -0.0143407866
 H      0.0108656088      0.0099034297     -0.0047737086
 O      0.0056345309      0.0074006685      0.0045488361
 H      0.0032790200     -0.0351730839      0.0031630648
 H      0.0143003790      0.0140403628     -0.0035282098
 O      0.0050896992      0.0104345808      0.0063688014
 H      0.0039282208      0.0177219849      0.0020287885
 H      0.0004198146      0.0076388675      0.0148696214
 O      0.0001690081     -0.0004060038      0.0021107410
 H     -0.0083153569     -0.0030497841      0.0146227261
 H     -0.0043676766      0.0038835135     -0.0069714858
 O     -0.0035820240     -0.0002470048     -0.0058005475
 H      0.0374282102     -0.0021980263      0.0070252582
 H     -0.0114850538      0.0101203282      0.0295226436
 O     -0.0049367747      0.0099297398     -0.0106179102
 H      0.0181324373      0.0270219781      0.0056745584
 H      0.0067384952      0.0155199305     -0.0011077268
 O     -0.0002527662      0.0021369309     -0.0037156721
 H     -0.0094136972      0.0170368051     -0.0005954920
 H      0.0280304159      0.0084134143     -0.0301024590
 O      0.0014541877     -0.0001540148      0.0048420408
 H      0.0276391869      0.0019948424     -0.0000235511
 H      0.0171813614      0.0092486429     -0.0063601652
 O     -0.0046262583      0.0006123335     -0.0061565858
 H     -0.0244801319     -0.0030626550     -0.0084765445
 H     -0.0212941271      0.0093230315      0.0033556214
 O     -0.0092323691     -0.0000083373      0.0035755586
 H      0.0173425875      0.0028401178      0.0064580460
 H     -0.0009067551      0.0070217439      0.0034692379
 O      0.0014627646      0.0029753739     -0.0022740717
 H      0.0061312389     -0.0024301639     -0.0156646826
 H     -0.0021679274     -0.0139657435     -0.0191372084
 O      0.0005908036      0.0036761465     -0.0042058526
 H      0.0033764657     -0.0038019770      0.0098009542
 H     -0.0052620476      0.0121383381     -0.0061904701
 O      0.0052661307     -0.0030150590     -0.0024680220
 H     -0.0057206200     -0.0095412310     -0.0075509663
 H     -0.0154295859      0.0156466272     -0.0033331090
61
# ORCA AIMD Velocity Step 4000, t=1000.00 fs, E_Pot=-267208.62335906 kJ mol^-1, Unit is Angstrom fs^-1
Zn     -0.0051605165     -0.0010015656     -0.0009823805
 O     -0.0018398163     -0.0015539380     -0.0088307435
 H     -0.0092026393     -0.0044469042     -0.0303783600
 H     -0.0236975042     -0.0026297379     -0.0322515800
 O     -0.0101921850     -0.0057120221      0.0055792388
 H     -0.0181592220      0.0196071127     -0.0395592535
 H      0.0007989852     -0.0126124647      0.0025585080
 O     -0.0020831382      0.0008068630      0.0065276029
 H      0.0360927962     -0.0198829328      0.0140149194
 H     -0.0000507242     -0.0000417378      0.0049215728
 O     -0.0045386068      0.0047205735     -0.0043339254
 H      0.0045466436     -0.0014043981      0.0111771492
 H     -0.0078102262      0.0175984076     -0.0032524533
 O     -0.0065202808     -0.0048921589      0.0037709060
 H      0.0055537346     -0.0182875030      0.0120974764
 H      0.0013453939     -0.0135637902      0.0083374829
 O      0.0113655808      0.0048198294      0.0032714442
 H     -0.0062007524      0.0161119812      0.0164285326
 H     -0.0167666116      0.0126885930     -0.0173670089
 O      0.0061544535     -0.0061999573     -0.0064834947
 H      0.0176252570     -0.0310248427      0.0257205504
 H     -0.0061124595     -0.0029131790      0.0006489375
 O     -0.0101768084      0.0033772963      0.0024852786
 H      0.0041801362     -0.0190356543      0.0116766173
 H      0.0007769201      0.0116159710      0.0216995245
 O      0.0039974643     -0.0048553224     -0.0040991187
 H      0.0071990748     -0.0015926731      0.0187754174
 H      0.0166049251     -0.0287943552     -0.0090300831
 O     -0.0068514370      0.0060323262      0.0021280287
 H     -0.0113010865      0.0408379804     -0.0134873909
 H      0.0273205163     -0.0110236966     -0.0346055578
 O     -0.0000153274     -0.0010672485     -0.0005779525
 H      0.0063189143      0.0182666474     -0.0008643009
 H     -0.0040192032      0.0118978918      0.0139862515
 O     -0.0047326987     -0.0008483149      0.0008432217
 H      0.0024056272     -0.0188902188      0.0074352432
 H     -0.0126007355     -0.0016859132     -0.0164972389
 O     -0.0014750719     -0.0046637496     -0.0025027685
 H     -0.0003003242     -0.0118244131      0.0104162321
 H      0.0272374378     -0.0093320111     -0.0385926859
 O     -0.0042738413     -0.0050356567     -0.0097148742
 H     -0.0044655972     -0.0145716585      0.0124043058
 H     -0.0006159486     -0.0288239448     -0.0155960473
 O     -0.0027881321     -0.0005437401      0.0016005119
 H     -0.0063749583     -0.0167918244      0.0028953576
 H      0.0136427655     -0.0090727867     -0.0290349704
 O     -0.0012777218      0.0032070249     -0.0009472618
 H     -0.0015814379     -0.0085087943     -0.0013232218
 H     -0.0095336539      0.0101609732     -0.0156723406
 O     -0.0010968084     -0.0078629552      0.0007648984
 H      0.0092676791      0.0086585167     -0.0089579835
 H     -0.0065001817     -0.0130049974      0.0216686511
 O      0.0019431616      0.0000307923     -0.0020701368
 H     -0.0011034547     -0.0056688320      0.0108365664
 H      0.0023966274      0.0023537332     -0.0045104446
 O      0.0043709612     -0.0016575183     -0.0023661057
 H      0.0165747996     -0.0013638612     -0.0149836927
 H     -0.0039730359     -0.0152900224     -0.0212280347
 O      0.0019314192      0.0040871326     -0.0014153803
 H      0.0112945728     -0.0028493507      0.0038138978
 H     -0.0010297912     -0.0138682335      0.0139140923
