97
# ORCA AIMD Velocity Step 0, t=0.00 fs, E_Pot=-378177.29225915 kJ mol^-1, Unit is Angstrom fs^-1
Zn      0.0005818760     -0.0024931213      0.0004385433
 O      0.0009493735      0.0006161159     -0.0022176757
 H     -0.0129089623     -0.0088314979     -0.0269321806
 H      0.0097014646      0.0239658294      0.0182022235
 O     -0.0092517102      0.0021841243     -0.0007495942
 H      0.0067042543      0.0094592454      0.0125440185
 H     -0.0078385558     -0.0105226061      0.0402244903
 O      0.0038989763      0.0002744486     -0.0004918181
 H      0.0088471433     -0.0029876029      0.0275648272
 H      0.0003796887      0.0287917898     -0.0009757116
 O     -0.0057340396     -0.0050542436     -0.0039710086
 H     -0.0158179149      0.0170385763      0.0013566317
 H      0.0191104748      0.0025192212     -0.0231042995
 O     -0.0010511156     -0.0029256505      0.0020795935
 H      0.0290343448      0.0089706563      0.0236089229
 H     -0.0040529248      0.0025244306      0.0212453854
 O      0.0040912109      0.0028791302     -0.0014763671
 H     -0.0071531194     -0.0200267193      0.0189551456
 H      0.0176593079     -0.0015382640     -0.0146753473
 O      0.0002449791      0.0057339475     -0.0073897758
 H     -0.0071313721     -0.0142742785     -0.0275462986
 H      0.0081761655      0.0352929883      0.0029060114
 O      0.0012829914     -0.0000336370     -0.0011302066
 H     -0.0013907048     -0.0070378041      0.0063160106
 H      0.0236919150      0.0028391240      0.0037055267
 O      0.0079379235      0.0001281880      0.0035055908
 H     -0.0083239466     -0.0180190164     -0.0242248067
 H     -0.0203630108      0.0089864424     -0.0154476140
 O      0.0043525786      0.0088503642     -0.0016700674
 H      0.0039377853      0.0103995074      0.0224304720
 H      0.0001757595     -0.0139240666     -0.0212967863
 O      0.0026779249      0.0014148851      0.0047225963
 H     -0.0154019302     -0.0067649631      0.0281230665
 H      0.0056421465      0.0024800671     -0.0026672243
 O     -0.0025609709      0.0011914281     -0.0013204113
 H      0.0034884283      0.0069455402     -0.0034787771
 H     -0.0022297963     -0.0151192269     -0.0031904290
 O      0.0011220564     -0.0077090302     -0.0026235726
 H     -0.0276017051     -0.0035697661      0.0381330428
 H     -0.0095774395      0.0126848181     -0.0179489715
 O     -0.0005900917     -0.0055297099     -0.0065499685
 H     -0.0067276985     -0.0083954257     -0.0054799671
 H      0.0210281675     -0.0049588927     -0.0197271438
 O     -0.0034031800      0.0000203005      0.0043793923
 H     -0.0081748209      0.0299000878      0.0054322355
 H      0.0092211831      0.0355193585      0.0035212876
 O     -0.0013243079     -0.0002873999     -0.0017838069
 H      0.0059709053     -0.0080412630      0.0270328937
 H      0.0483532377      0.0036664283      0.0034492543
 O      0.0016546142     -0.0012400989     -0.0028659421
 H      0.0023478379     -0.0122868363     -0.0085491957
 H     -0.0075993432      0.0307155811     -0.0152621104
 O     -0.0029096139     -0.0038824095      0.0068161235
 H     -0.0158119844      0.0055890327     -0.0066787038
 H     -0.0138423384      0.0052825001      0.0185953609
 O      0.0036841813     -0.0054571617      0.0065955832
 H     -0.0109199503     -0.0196145176     -0.0117000912
 H     -0.0193005401     -0.0093724079     -0.0064402032
 O     -0.0005470204      0.0039351602     -0.0024648135
 H     -0.0028583207     -0.0136537057      0.0117300627
 H      0.0312239481     -0.0051366859      0.0065532612
 N     -0.0026594893     -0.0002071013     -0.0022286010
 C      0.0003245645      0.0048907400      0.0005524916
 C      0.0030719370      0.0052189684      0.0017506937
 N     -0.0011742303     -0.0043104577      0.0043263455
 H      0.0129575484     -0.0381898217      0.0162593785
 H      0.0098261669      0.0312901488      0.0326003528
 H     -0.0247371219     -0.0143557394      0.0030759786
 H     -0.0216431421     -0.0089400155     -0.0053437407
 H     -0.0170660138      0.0042851645      0.0055650683
 H     -0.0203306636     -0.0154269651     -0.0193666136
 H     -0.0051181268      0.0035532741      0.0110329878
 H      0.0245807198     -0.0090641141     -0.0280541541
 N     -0.0058183962     -0.0024277438     -0.0046812571
 C      0.0056705032     -0.0061634282      0.0002570586
 C     -0.0017113569     -0.0011697883      0.0040841495
 N      0.0027535485      0.0022519313     -0.0007215722
 H      0.0017591850      0.0017667862      0.0111530076
 H     -0.0245916469      0.0139723898      0.0068630042
 H     -0.0055550219     -0.0081836083      0.0166325705
 H      0.0066996049      0.0065888856     -0.0027790596
 H      0.0050089899      0.0188690222     -0.0114729663
 H     -0.0049919195      0.0315453601     -0.0147084969
 H     -0.0214358064      0.0198464300      0.0013164122
 H     -0.0061694465      0.0076053835     -0.0012863443
 N      0.0013779768      0.0061262006      0.0105616965
 C     -0.0057428384     -0.0015460980     -0.0066883048
 C     -0.0001327910     -0.0031544093     -0.0080719704
 N     -0.0018810719      0.0078041833     -0.0005542158
 H      0.0219394183      0.0021916940      0.0041144654
 H      0.0036441379      0.0219833454     -0.0169209275
 H     -0.0068634252     -0.0109111331      0.0063976182
 H      0.0191933291      0.0080796193     -0.0010588417
 H      0.0030064309     -0.0003014704      0.0031722595
 H     -0.0090082245     -0.0243406667     -0.0049957062
 H     -0.0184516289      0.0136075112      0.0182621910
 H      0.0233375077     -0.0010565681     -0.0050392890
97
# ORCA AIMD Velocity Step 2000, t=500.00 fs, E_Pot=-378752.25788284 kJ mol^-1, Unit is Angstrom fs^-1
Zn      0.0010759285     -0.0033108282     -0.0032719203
 O      0.0049012512      0.0162817477     -0.0065676055
 H      0.0084620636      0.0211197808     -0.0176348888
 H      0.0076953286     -0.0051649500      0.0047158644
 O     -0.0102086198      0.0046753539      0.0083978877
 H      0.0175528037     -0.0100819165      0.0112568871
 H      0.0059392269     -0.0010826058      0.0006235055
 O     -0.0020377127     -0.0024054144     -0.0052279750
 H     -0.0122765857     -0.0217390603     -0.0043609181
 H      0.0061005691      0.0157361949      0.0219388114
 O     -0.0059022967      0.0014409885     -0.0074025493
 H      0.0004855676      0.0058618131     -0.0048688635
 H      0.0139910652      0.0235346162     -0.0194796613
 O     -0.0010756780      0.0018307917      0.0082334923
 H      0.0146712173      0.0024075239     -0.0196094307
 H     -0.0269382221     -0.0157204555      0.0058879753
 O      0.0051441530     -0.0030136949     -0.0079278747
 H      0.0224605554      0.0023511093     -0.0537124654
 H     -0.0150914057      0.0060808339      0.0252769132
 O     -0.0005857098     -0.0014892227      0.0020207913
 H     -0.0076437987      0.0024562719     -0.0153966036
 H      0.0097366498     -0.0045769868     -0.0011100826
 O      0.0034625095      0.0036218151     -0.0009398147
 H      0.0360699381      0.0031123172      0.0136947259
 H      0.0009366825     -0.0017408087     -0.0014081354
 O     -0.0159695031     -0.0024716782      0.0087894448
 H      0.0290989073     -0.0400526755      0.0373881084
 H      0.0064450761      0.0080313320     -0.0011647353
 O     -0.0013770523     -0.0025670423     -0.0033170317
 H     -0.0080733325     -0.0216339290      0.0252436369
 H     -0.0184697200     -0.0207871991     -0.0134350200
 O     -0.0097916296      0.0080773653     -0.0028938635
 H     -0.0390544166      0.0043343367      0.0018709606
 H      0.0149004439      0.0000957477     -0.0126300745
 O     -0.0031581576     -0.0001960759     -0.0023037208
 H      0.0039573218      0.0080999686     -0.0139337826
 H     -0.0146660740      0.0004869016     -0.0160435031
 O      0.0003929072     -0.0021536265     -0.0010314280
 H     -0.0113822850      0.0015621334     -0.0270049069
 H      0.0211483651      0.0159492073     -0.0019296088
 O      0.0029881327     -0.0057755453      0.0015763041
 H      0.0152974849     -0.0206653653     -0.0197504099
 H     -0.0006414488      0.0085363573      0.0053654386
 O     -0.0103319499     -0.0046738479     -0.0059333011
 H      0.0056658692     -0.0154407599     -0.0089085450
 H     -0.0226586555     -0.0115447940     -0.0132251671
 O     -0.0006021406     -0.0032227880      0.0051579770
 H      0.0026668584      0.0045967427      0.0031845331
 H     -0.0070589007      0.0012402558      0.0118071718
 O      0.0050983592     -0.0022736565      0.0085197254
 H      0.0164504431      0.0019576956     -0.0053352652
 H      0.0039107012     -0.0054417532      0.0012417445
 O      0.0005553401     -0.0008907280      0.0013597707
 H      0.0120738723     -0.0080313306      0.0025774357
 H      0.0160621782      0.0020427502     -0.0050360412
 O      0.0104365770      0.0002953089      0.0014727117
 H     -0.0148991642     -0.0076931355      0.0183841511
 H      0.0132984552      0.0103061155      0.0052771621
 O      0.0054084211      0.0006282467      0.0000044478
 H     -0.0318249568     -0.0073480042      0.0000622672
 H      0.0189115062      0.0060044303      0.0104932479
 N      0.0032052517      0.0037512276      0.0050947245
 C     -0.0006438365     -0.0051846743      0.0032345003
 C      0.0036804463      0.0016107985     -0.0021599092
 N     -0.0019682468     -0.0013664854     -0.0018438126
 H      0.0115003851      0.0045070061      0.0185445591
 H     -0.0121685592      0.0099407386      0.0109716267
 H      0.0099303386      0.0131856085      0.0053441020
 H     -0.0126171806      0.0062991018     -0.0008758867
 H      0.0144661992      0.0156501700     -0.0125651156
 H      0.0137579237     -0.0054976618     -0.0188339114
 H      0.0023345243      0.0010197924     -0.0199441338
 H      0.0015748242      0.0026263768     -0.0167408461
 N      0.0049086104      0.0040812442      0.0095984650
 C      0.0011116172      0.0027554185     -0.0025410582
 C      0.0027151478      0.0047587659      0.0038378816
 N      0.0052084345     -0.0027000173      0.0013731627
 H     -0.0006832274      0.0125572942      0.0106189348
 H      0.0042278146      0.0054167097      0.0115543993
 H     -0.0069303884      0.0055077860     -0.0029359481
 H     -0.0056468971      0.0065261847      0.0009248640
 H      0.0214316401      0.0123624309     -0.0001830947
 H     -0.0034154316      0.0023862173      0.0026403960
 H      0.0127555586      0.0029151738     -0.0101663886
 H      0.0043229733     -0.0112101090     -0.0049203355
 N     -0.0115745454     -0.0003311224     -0.0034541304
 C     -0.0021400681     -0.0043482481      0.0011483641
 C      0.0076372419      0.0051963305      0.0015111190
 N      0.0016225577     -0.0028915517      0.0057866301
 H     -0.0092049368     -0.0126287565     -0.0083874988
 H     -0.0130900921      0.0142641721     -0.0041322861
 H      0.0133435127      0.0013137562     -0.0044950877
 H     -0.0094871439     -0.0039442758     -0.0001962136
 H     -0.0086661210      0.0121843311      0.0064425511
 H     -0.0020775063      0.0066423527     -0.0051564783
 H     -0.0069187258      0.0145590518     -0.0070626438
 H      0.0074540432      0.0007112931      0.0073364304
97
# ORCA AIMD Velocity Step 4000, t=1000.00 fs, E_Pot=-378849.17467144 kJ mol^-1, Unit is Angstrom fs^-1
Zn     -0.0038013772     -0.0044171294     -0.0058933663
 O     -0.0001116214     -0.0013721740     -0.0022334933
 H      0.0140415967      0.0072970171      0.0084792851
 H      0.0176831691     -0.0020990640     -0.0068688762
 O     -0.0087525302      0.0049447190      0.0051652077
 H     -0.0140851181      0.0068921073      0.0162123132
 H     -0.0180348945      0.0185391864      0.0119067248
 O     -0.0008675561     -0.0008345925     -0.0013149325
 H      0.0127486824      0.0134694052      0.0130715484
 H     -0.0252002988     -0.0036923140      0.0140726784
 O      0.0116372955     -0.0095029812     -0.0053462189
 H      0.0030540730     -0.0186814347      0.0170247407
 H      0.0173187082      0.0459465573     -0.0072640792
 O      0.0025090655     -0.0038476110      0.0070116540
 H      0.0022152194     -0.0002064168      0.0269859807
 H      0.0054399805     -0.0281806155     -0.0092433870
 O     -0.0047225100      0.0066914675     -0.0002904886
 H      0.0437765572     -0.0188269821      0.0107957804
 H     -0.0001914236     -0.0027945586      0.0417025429
 O     -0.0002494238      0.0010990482     -0.0036326609
 H      0.0151056200     -0.0267799326     -0.0036736216
 H      0.0114673626      0.0184131681     -0.0148002649
 O      0.0000816962      0.0001873326      0.0053893419
 H     -0.0081101522      0.0031469815     -0.0056327621
 H     -0.0009402758     -0.0185277037     -0.0097275973
 O     -0.0070105388      0.0022456181      0.0040608370
 H      0.0101588021      0.0109613694     -0.0136555985
 H     -0.0047876194      0.0299462611      0.0179931439
 O      0.0035794676      0.0009322197     -0.0060362919
 H     -0.0477308690     -0.0164164289     -0.0064091449
 H     -0.0170576539     -0.0192974344      0.0364110072
 O     -0.0077539981      0.0064508162     -0.0028875453
 H     -0.0201606670      0.0068520964     -0.0025021134
 H      0.0011261614     -0.0188216194      0.0043385558
 O      0.0053203888     -0.0024406845      0.0059952155
 H      0.0141627374     -0.0179163911      0.0095222560
 H     -0.0126942214     -0.0072499072     -0.0317930435
 O     -0.0052127092      0.0044395606     -0.0006654718
 H     -0.0161247507     -0.0260029927     -0.0017611877
 H      0.0115186762     -0.0098868917     -0.0054277719
 O     -0.0023969923     -0.0050611081     -0.0012235810
 H      0.0298029624      0.0125323300     -0.0200915015
 H      0.0123631793     -0.0065636982     -0.0048498663
 O     -0.0049717474     -0.0101569599     -0.0023413915
 H      0.0048383046     -0.0015147412     -0.0177967927
 H      0.0091242496     -0.0049134817      0.0020900945
 O      0.0008222420     -0.0041279105      0.0056755335
 H      0.0073272849      0.0055745389     -0.0012863129
 H      0.0068357489     -0.0055373008      0.0075020681
 O      0.0035256708     -0.0016484021      0.0072180054
 H      0.0077739629      0.0090985780     -0.0037404202
 H      0.0100029834      0.0070276927     -0.0084689892
 O     -0.0026615410      0.0047842604      0.0014992768
 H     -0.0148982187      0.0072809747      0.0044783621
 H      0.0073444349      0.0053908379      0.0144427495
 O      0.0089272020      0.0027795604     -0.0023882703
 H     -0.0091521878     -0.0013019581      0.0016991324
 H      0.0193130904      0.0045111915     -0.0148891651
 O     -0.0004143993     -0.0044985767      0.0098622632
 H      0.0009384187     -0.0214365654      0.0043198961
 H      0.0144849978      0.0011617879     -0.0136476830
 N      0.0002657656     -0.0086145418      0.0027296022
 C     -0.0027897556      0.0046766901     -0.0009730977
 C      0.0020057348     -0.0017352837     -0.0057805292
 N      0.0009443960      0.0072922172      0.0038531165
 H      0.0072387540      0.0044412129     -0.0180294493
 H     -0.0043373764      0.0015794348      0.0160798172
 H      0.0157569974      0.0017971871     -0.0241001537
 H     -0.0023817984     -0.0078180472     -0.0121004810
 H     -0.0068517952      0.0153547116     -0.0036898441
 H      0.0053712951     -0.0025715608     -0.0031563991
 H      0.0098113395      0.0091042577      0.0019076142
 H      0.0016542936      0.0111467677     -0.0043511909
 N     -0.0021082940     -0.0041120183     -0.0086176065
 C      0.0038311634      0.0021770937      0.0036639180
 C      0.0056420479     -0.0005797886      0.0044572346
 N     -0.0003133796     -0.0016197950      0.0069702860
 H      0.0059246612      0.0089318667     -0.0015583373
 H     -0.0138752861      0.0058899225     -0.0119456624
 H      0.0019823215     -0.0026261613     -0.0040515395
 H     -0.0042739321      0.0124062562      0.0080107853
 H      0.0023264444      0.0012603383     -0.0097303013
 H      0.0261763565      0.0078674504      0.0069268273
 H     -0.0212520767      0.0036553683      0.0151180034
 H      0.0142264204     -0.0005299510     -0.0070568580
 N     -0.0023122641      0.0095324460     -0.0021992947
 C      0.0011807102     -0.0062997708     -0.0050512685
 C     -0.0023824282      0.0019710838     -0.0084152167
 N      0.0054172379     -0.0008365368      0.0078662726
 H      0.0063592938     -0.0136791086     -0.0093104271
 H     -0.0020282512      0.0064595409      0.0025142268
 H      0.0009297047     -0.0005408197      0.0183939907
 H      0.0053719339     -0.0095438592     -0.0002557085
 H      0.0036412520      0.0149015559     -0.0017179993
 H     -0.0014667598      0.0075225543     -0.0060856341
 H     -0.0078038610     -0.0055213804      0.0026493300
 H      0.0048127666      0.0021474001     -0.0052461698
97
# ORCA AIMD Velocity Step 6000, t=1500.00 fs, E_Pot=-378830.38373552 kJ mol^-1, Unit is Angstrom fs^-1
Zn     -0.0014416433     -0.0035001126     -0.0016166558
 O      0.0016284894     -0.0003718059     -0.0019021064
 H      0.0186662412     -0.0150806091     -0.0111631518
 H     -0.0141346370     -0.0124863464      0.0063145460
 O     -0.0097100336      0.0043635400      0.0055505986
 H     -0.0038865142      0.0019722950      0.0066428032
 H     -0.0034745254      0.0236722310      0.0068570651
 O     -0.0098695724     -0.0076606480      0.0018107280
 H      0.0278380266      0.0255244157     -0.0130520360
 H      0.0016997801      0.0125821926     -0.0295051620
 O      0.0012898010     -0.0006157941     -0.0061666484
 H      0.0127517435      0.0048865883     -0.0056417522
 H      0.0029095097     -0.0036976400      0.0219534870
 O     -0.0065062227     -0.0034488793      0.0067602442
 H     -0.0071829775     -0.0163150525      0.0145087569
 H     -0.0074843071      0.0005006491      0.0256860345
 O     -0.0011558292      0.0056485299     -0.0052991207
 H     -0.0213386096     -0.0031224823      0.0037316150
 H     -0.0161940177      0.0183172602     -0.0260414862
 O      0.0007786200      0.0099627667     -0.0013936534
 H      0.0245418610      0.0137838717      0.0050234567
 H      0.0019518553      0.0139970527      0.0008288283
 O      0.0003218806      0.0009644539     -0.0028984906
 H      0.0274290274      0.0463677901     -0.0163183901
 H      0.0115016906     -0.0027824369     -0.0122345712
 O      0.0069843890      0.0058792930      0.0009743965
 H     -0.0107467955     -0.0184384722     -0.0046556586
 H     -0.0060917151      0.0257264150      0.0069309750
 O     -0.0027322033     -0.0033686383     -0.0002693004
 H      0.0098095217      0.0082878140      0.0189323692
 H      0.0030815163      0.0135889072      0.0420147360
 O     -0.0097395185      0.0040679022     -0.0025467515
 H      0.0103473506      0.0091604476     -0.0033835549
 H     -0.0048818671      0.0188739079     -0.0010100965
 O      0.0071885240     -0.0074466657      0.0038838824
 H      0.0015881669      0.0119211835     -0.0099240563
 H      0.0212916741     -0.0021727942      0.0248430818
 O     -0.0008784534     -0.0034314012     -0.0033581402
 H     -0.0152940948      0.0310832934      0.0285976482
 H      0.0138855729      0.0107849076     -0.0407473963
 O     -0.0005703550     -0.0127897327     -0.0046866331
 H     -0.0120293047      0.0147707554      0.0046777297
 H      0.0058687228      0.0243445666     -0.0208072120
 O     -0.0030616430     -0.0066454212     -0.0015879179
 H     -0.0270866326     -0.0261244389     -0.0007384606
 H      0.0107273504     -0.0186125842     -0.0198109972
 O      0.0005348432     -0.0040402972      0.0028464276
 H      0.0082841694     -0.0021959658      0.0292505149
 H      0.0129646410     -0.0033622558      0.0080384892
 O      0.0038728156     -0.0010662085      0.0057611650
 H      0.0035100668      0.0001715960     -0.0016310957
 H      0.0004569193      0.0153247712     -0.0001965569
 O     -0.0061900497      0.0082258690     -0.0024223392
 H     -0.0023952520     -0.0012018357      0.0260614737
 H     -0.0154729918      0.0045372277      0.0110983306
 O      0.0088054593      0.0057362353      0.0079847317
 H      0.0127456044     -0.0021995293      0.0030245448
 H     -0.0009069773      0.0217683142     -0.0118221067
 O     -0.0018503313     -0.0005515421      0.0052747640
 H     -0.0017009655      0.0059605340      0.0058576230
 H     -0.0130410604     -0.0059040942      0.0167251499
 N      0.0061532541     -0.0071465023     -0.0042924652
 C      0.0068018819     -0.0009783858      0.0057463142
 C     -0.0050953945     -0.0015193137      0.0075717769
 N     -0.0005570569     -0.0050402944     -0.0040227420
 H      0.0172619777     -0.0192832259      0.0019666878
 H     -0.0100965414     -0.0237661199     -0.0201131265
 H      0.0078294803     -0.0117945688      0.0130115121
 H      0.0076658560      0.0217982865     -0.0145068400
 H     -0.0231052596      0.0142342022      0.0232774692
 H     -0.0188161700      0.0108456318      0.0112382634
 H      0.0184333004      0.0011945397     -0.0062960040
 H      0.0120628747     -0.0148962611     -0.0104352864
 N      0.0045279007     -0.0039345955     -0.0024455792
 C     -0.0002806758     -0.0036371215      0.0007627285
 C     -0.0027831045     -0.0034016509     -0.0038263105
 N      0.0049792988      0.0043845491      0.0081239539
 H      0.0116128932     -0.0049914576     -0.0225416057
 H     -0.0017932428     -0.0132833718     -0.0072934892
 H     -0.0001096677      0.0028688733     -0.0107389417
 H      0.0014983828     -0.0056645466      0.0013807552
 H     -0.0076175527     -0.0127382859      0.0032554120
 H     -0.0048670973      0.0037704269      0.0268188192
 H     -0.0093744842     -0.0103926469      0.0294343947
 H      0.0003199027      0.0199780205     -0.0098580521
 N      0.0001206187      0.0013651594     -0.0008205336
 C     -0.0000343288      0.0035646530     -0.0014970266
 C      0.0006692043      0.0002725488     -0.0021856415
 N      0.0011035644     -0.0037419483     -0.0101682304
 H     -0.0010075353      0.0008849873      0.0022000174
 H     -0.0061774036      0.0010421972     -0.0194007807
 H      0.0195482222      0.0073039471     -0.0141315694
 H     -0.0081930407      0.0065463502      0.0232536282
 H      0.0093556522     -0.0328792698      0.0025189567
 H      0.0099236353     -0.0028876969      0.0079410905
 H      0.0061514466     -0.0194721208     -0.0102420769
 H      0.0040241432      0.0043353105     -0.0159066197
97
# ORCA AIMD Velocity Step 8000, t=2000.00 fs, E_Pot=-378811.14615221 kJ mol^-1, Unit is Angstrom fs^-1
Zn      0.0007473298     -0.0008460601      0.0004370923
 O      0.0012274519     -0.0044971704     -0.0018311032
 H      0.0152585185      0.0180326901     -0.0102176715
 H     -0.0071426633      0.0047649551      0.0134124817
 O     -0.0080138518      0.0053371988      0.0044240634
 H     -0.0006221000     -0.0055582876      0.0035505943
 H     -0.0126348800      0.0023260326      0.0123206180
 O     -0.0092505499      0.0014845812      0.0045580020
 H     -0.0055350972     -0.0025952445     -0.0028724877
 H      0.0386910669     -0.0274854170     -0.0143338395
 O      0.0057529255     -0.0034350900     -0.0060601652
 H     -0.0185094099     -0.0083142233     -0.0177689186
 H      0.0180203023      0.0382855853      0.0052276181
 O     -0.0068156630      0.0111647666     -0.0084050474
 H      0.0219607917     -0.0332559107      0.0025179538
 H      0.0091618297     -0.0108738476      0.0197100370
 O     -0.0029191641     -0.0055658180      0.0024208244
 H      0.0326741197      0.0124654826      0.0035042531
 H     -0.0037719307      0.0062245129     -0.0019406519
 O     -0.0009499736      0.0122890080     -0.0006563850
 H      0.0031986140      0.0120868562      0.0078797363
 H     -0.0104927851      0.0078601091     -0.0064537965
 O     -0.0066605005     -0.0028903381     -0.0006895690
 H     -0.0116075559      0.0270918773      0.0208611956
 H      0.0076809520     -0.0086131875     -0.0098321398
 O      0.0006772100      0.0029328777     -0.0040471534
 H      0.0036270080     -0.0166117880     -0.0439372570
 H      0.0211234608     -0.0157596485     -0.0147664540
 O     -0.0024868107      0.0007566146     -0.0005740976
 H      0.0262267820      0.0144798524      0.0166898160
 H     -0.0021205930     -0.0031271258      0.0070536424
 O     -0.0069789327      0.0039483752     -0.0021587355
 H     -0.0179449393      0.0230503847     -0.0001126135
 H     -0.0194491971      0.0046837783     -0.0097947804
 O      0.0053563002     -0.0074528013      0.0041933455
 H      0.0132364944      0.0056162239      0.0157509722
 H      0.0277793569      0.0002859006      0.0077232598
 O      0.0028719539     -0.0061280574      0.0063585177
 H     -0.0118442230      0.0057408951      0.0443997232
 H      0.0159862025     -0.0149088963      0.0104710980
 O     -0.0043409013     -0.0065730527     -0.0042361488
 H      0.0474953701     -0.0200651845      0.0129044042
 H     -0.0059546890     -0.0284257463      0.0056717380
 O     -0.0016253755     -0.0087989143     -0.0038915102
 H     -0.0287162725      0.0006800878     -0.0147937595
 H      0.0140728207     -0.0005554320      0.0027528493
 O      0.0003533621     -0.0030300734      0.0032475694
 H      0.0223942979     -0.0042982852      0.0082356974
 H      0.0028051538     -0.0165592435      0.0177971194
 O      0.0019014237      0.0007044358      0.0047056095
 H      0.0077630536     -0.0067259214      0.0122068401
 H      0.0188343238     -0.0044375048     -0.0037442155
 O     -0.0061549704      0.0058283814     -0.0014303217
 H     -0.0111727171      0.0323173284      0.0208526130
 H     -0.0006405959      0.0045963564     -0.0001144443
 O      0.0004360412     -0.0059097818     -0.0027488083
 H     -0.0242970160      0.0055883711     -0.0006705800
 H      0.0055415936     -0.0041950114     -0.0117193784
 O     -0.0006372466      0.0008754559      0.0054602013
 H     -0.0092681645     -0.0126077063      0.0047735885
 H     -0.0182050576     -0.0092709802      0.0092046128
 N      0.0019197118      0.0025711072      0.0013360267
 C      0.0007342413     -0.0031518522      0.0005939311
 C      0.0068001885      0.0031970363     -0.0027918527
 N      0.0004552459      0.0025190459     -0.0016812518
 H      0.0104858251     -0.0064469169      0.0158962086
 H     -0.0036006780      0.0003750178      0.0164031285
 H      0.0133645290     -0.0068890146      0.0100390288
 H      0.0042284233      0.0040036793     -0.0061830529
 H      0.0125129471     -0.0130305632     -0.0131071037
 H      0.0097665975      0.0240090435     -0.0082611364
 H     -0.0174745240      0.0074659527     -0.0105563914
 H      0.0292633431      0.0035301417     -0.0009809617
 N      0.0036856290      0.0010271619      0.0063199421
 C     -0.0023608145     -0.0012418701      0.0049620402
 C      0.0003160642     -0.0061575185     -0.0022241419
 N      0.0000306602     -0.0054641074     -0.0067868294
 H     -0.0079856390      0.0008855136      0.0099916640
 H      0.0054326045      0.0086484772      0.0079439740
 H     -0.0057054763      0.0016094413      0.0005678579
 H      0.0055204472      0.0011060713      0.0144832327
 H     -0.0056932128      0.0001630220      0.0063190401
 H      0.0073503977      0.0066423936      0.0052561099
 H      0.0272603311     -0.0108706981     -0.0261141320
 H      0.0028839159      0.0021140535     -0.0025583091
 N      0.0025059510      0.0054073335     -0.0033691033
 C      0.0040245715     -0.0042650224     -0.0085858548
 C      0.0012995261     -0.0063365234     -0.0000570118
 N     -0.0010955033     -0.0064673701      0.0005286329
 H      0.0075568049     -0.0107467320      0.0001129056
 H     -0.0037466933     -0.0124032181      0.0060180438
 H      0.0137933882     -0.0176202046      0.0022763370
 H      0.0103762516      0.0212037783     -0.0134620734
 H      0.0113639251      0.0078466330      0.0032545292
 H     -0.0026518591      0.0039922770     -0.0040132272
 H     -0.0337822810     -0.0218349986     -0.0049379682
 H     -0.0096927213      0.0085887649     -0.0149538533
97
# ORCA AIMD Velocity Step 10000, t=2500.00 fs, E_Pot=-378820.32481022 kJ mol^-1, Unit is Angstrom fs^-1
Zn     -0.0017259976      0.0001580317     -0.0010683084
 O      0.0013864995     -0.0034237945     -0.0033146832
 H      0.0029313619     -0.0021080243      0.0363590558
 H     -0.0108518828     -0.0089044440     -0.0024912040
 O     -0.0051799824      0.0030578439      0.0033037077
 H     -0.0069696022      0.0054543853      0.0078303812
 H     -0.0150092288      0.0052813541      0.0012566536
 O      0.0049991073      0.0031679178      0.0031981033
 H      0.0176363417     -0.0017870747      0.0173417017
 H     -0.0137696658      0.0034091120      0.0242251459
 O     -0.0090637704     -0.0036751800      0.0054850803
 H      0.0069807010     -0.0072817819      0.0067216194
 H     -0.0300692525      0.0080769613      0.0174275844
 O      0.0005726206      0.0011250701     -0.0074922940
 H      0.0144895173      0.0129912220     -0.0096753431
 H      0.0231116983      0.0177083551     -0.0090352093
 O     -0.0048461470     -0.0000155585     -0.0027735302
 H     -0.0313612377     -0.0096263978     -0.0276092801
 H     -0.0122456690     -0.0095526077      0.0170694684
 O     -0.0018641911      0.0102641964     -0.0010658498
 H     -0.0025466917      0.0145690414      0.0074536015
 H      0.0124115921      0.0140286493     -0.0001493984
 O      0.0036957215     -0.0058664692     -0.0073984300
 H     -0.0032212817      0.0121544951     -0.0153516719
 H      0.0113646741      0.0196083454     -0.0107777464
 O     -0.0013556586     -0.0078763375      0.0002368392
 H      0.0361968945      0.0026858707     -0.0363637861
 H      0.0133842108     -0.0107052426     -0.0053300812
 O     -0.0031803280      0.0023768379      0.0015130143
 H      0.0122287062      0.0027415874     -0.0107394688
 H     -0.0195399497     -0.0160398840      0.0102316765
 O     -0.0076591314      0.0058090125     -0.0024814418
 H     -0.0175391563     -0.0037712520      0.0002222996
 H      0.0040613132     -0.0064264024     -0.0008105683
 O      0.0055421549     -0.0043796051      0.0051892298
 H      0.0234771523     -0.0221370999     -0.0091562468
 H      0.0036280280     -0.0099067987      0.0087836779
 O      0.0022099281     -0.0073641617      0.0084267547
 H     -0.0067225375      0.0234620142     -0.0048397579
 H      0.0259777294     -0.0000087242      0.0002043362
 O     -0.0008767401     -0.0090536637     -0.0037683298
 H     -0.0204908060     -0.0015787749     -0.0074662647
 H      0.0053035138      0.0037859949      0.0332647334
 O     -0.0024188067     -0.0082497017     -0.0042369626
 H      0.0137191371     -0.0096548356     -0.0174503231
 H     -0.0065025876      0.0184378074      0.0080202882
 O      0.0006187018     -0.0039911680      0.0035415505
 H      0.0211968655      0.0039168457     -0.0037192113
 H     -0.0016342894     -0.0026636894      0.0161315359
 O      0.0016504975     -0.0001150311      0.0033847373
 H      0.0174839343      0.0031448266      0.0092657264
 H      0.0030833000     -0.0045361997      0.0087252983
 O     -0.0073376388      0.0063835087     -0.0018583268
 H     -0.0019217664      0.0078313153      0.0107024192
 H      0.0187869351      0.0093412572      0.0170051231
 O     -0.0045923947     -0.0018982304     -0.0011170631
 H      0.0333291903      0.0065518813     -0.0311426626
 H     -0.0265160952      0.0053479174      0.0125936693
 O      0.0015376469     -0.0000582089      0.0039937506
 H     -0.0152540682     -0.0060304744      0.0083557112
 H     -0.0195128260     -0.0019372943      0.0014370496
 N      0.0009277697      0.0036475041      0.0066034841
 C      0.0023699738     -0.0014616339     -0.0005495425
 C      0.0028751683     -0.0044498528      0.0003285207
 N      0.0026772683     -0.0048484586     -0.0032733763
 H      0.0197716301     -0.0041080540      0.0115672813
 H      0.0014775775      0.0164906256      0.0038417743
 H      0.0280551106      0.0145191715      0.0006760365
 H     -0.0004159769      0.0033363530      0.0182838470
 H      0.0134101921     -0.0158204632      0.0082380094
 H      0.0105743064      0.0056944788     -0.0056224415
 H      0.0186563564     -0.0050029227     -0.0124080416
 H     -0.0171073844      0.0051887484      0.0199594285
 N     -0.0017462914     -0.0015779139      0.0006230221
 C      0.0008189241      0.0038825798     -0.0022269059
 C      0.0001020865     -0.0050761843      0.0018528302
 N      0.0021886313     -0.0033400317     -0.0013048054
 H     -0.0177680041      0.0135451801      0.0165101667
 H     -0.0119867946     -0.0149520438     -0.0003572402
 H      0.0096266367      0.0029383049     -0.0104177421
 H      0.0148226504     -0.0025377581      0.0159548404
 H      0.0141230703     -0.0017974695      0.0094931524
 H      0.0161897478     -0.0046990985      0.0117819110
 H      0.0024461113     -0.0245029632      0.0086391576
 H     -0.0020194779     -0.0041407883     -0.0044228160
 N     -0.0000485149      0.0027857613      0.0015419701
 C      0.0010669737     -0.0000626502     -0.0030703654
 C      0.0059474542      0.0027288019     -0.0058322999
 N      0.0046004564      0.0010389411     -0.0051167748
 H      0.0273167061     -0.0063337100      0.0074759458
 H      0.0066283625     -0.0028105165     -0.0129328132
 H     -0.0209475377     -0.0020616128     -0.0145590413
 H     -0.0002298333     -0.0029611243     -0.0231663311
 H     -0.0024497344     -0.0169813817     -0.0129416984
 H      0.0100499857      0.0039432654     -0.0159985445
 H      0.0013738165      0.0143487331      0.0045147853
 H      0.0106149116     -0.0071347634      0.0086192992
97
# ORCA AIMD Velocity Step 12000, t=3000.00 fs, E_Pot=-378761.28719036 kJ mol^-1, Unit is Angstrom fs^-1
Zn      0.0015407362     -0.0001694592     -0.0023577543
 O      0.0027081276     -0.0045637881     -0.0042346083
 H     -0.0057671203     -0.0112113328      0.0054657487
 H     -0.0037489515      0.0147938015      0.0379637847
 O     -0.0047783368      0.0020092551      0.0018471747
 H     -0.0072831693      0.0076217855      0.0100184978
 H     -0.0012038723      0.0065013433      0.0069092023
 O      0.0086501433     -0.0037907709     -0.0075496117
 H      0.0119545282      0.0010095130      0.0369101704
 H      0.0224150554     -0.0099994340     -0.0057890970
 O      0.0050509385     -0.0035009906     -0.0026937691
 H      0.0022714936     -0.0266745433      0.0173143851
 H      0.0026316815      0.0127554041     -0.0071092195
 O      0.0025979562      0.0056788781      0.0001544974
 H      0.0285915104     -0.0143209931     -0.0202252029
 H     -0.0009755984     -0.0242446389      0.0017120996
 O     -0.0024560214     -0.0056198571      0.0046995527
 H      0.0124715527      0.0042078807      0.0036873299
 H      0.0068337316      0.0094665348     -0.0012033349
 O     -0.0028627390      0.0119094380      0.0002796893
 H      0.0102037246      0.0109016244     -0.0151472680
 H      0.0130033596      0.0166660751     -0.0003544223
 O     -0.0025097440     -0.0008991342     -0.0024586961
 H     -0.0065792025     -0.0060238285     -0.0004935680
 H     -0.0003509334     -0.0153936208     -0.0114197498
 O     -0.0089603573      0.0091554967     -0.0083660287
 H     -0.0024922202      0.0118545297      0.0018026679
 H     -0.0238920014      0.0173493931     -0.0172141566
 O     -0.0051907018     -0.0059551494      0.0060457050
 H     -0.0106048582     -0.0126160089     -0.0043757363
 H      0.0080325282      0.0153136756      0.0071761056
 O     -0.0089926964      0.0046764365     -0.0027973341
 H     -0.0006203658     -0.0074602931     -0.0005792688
 H     -0.0096455586      0.0263815145      0.0000177751
 O      0.0058606159     -0.0056180180      0.0058460508
 H      0.0083393716     -0.0070717564      0.0073068480
 H      0.0289051559     -0.0182965711     -0.0071344324
 O      0.0015702399     -0.0057537793      0.0104479166
 H      0.0369090752     -0.0071650499     -0.0241621261
 H     -0.0066434603     -0.0054564042     -0.0094585581
 O     -0.0001595258     -0.0072712944     -0.0030101476
 H     -0.0004656612     -0.0259306231     -0.0170304861
 H     -0.0288738385     -0.0205734242      0.0210752015
 O     -0.0010053592     -0.0090462052     -0.0049517885
 H      0.0058878475     -0.0006213536     -0.0180496820
 H     -0.0258234557      0.0081543892      0.0156565673
 O      0.0023219929     -0.0030454540      0.0056713267
 H     -0.0167093506     -0.0114678858     -0.0119925368
 H      0.0146764183     -0.0107104606     -0.0033869435
 O      0.0039096639     -0.0005440119      0.0049621430
 H     -0.0032073345     -0.0013775511      0.0153493012
 H     -0.0101262996      0.0056826331     -0.0176995471
 O     -0.0072186253      0.0062810326     -0.0018880659
 H     -0.0013803398      0.0226643546      0.0177807744
 H      0.0029440904      0.0120502383      0.0101028061
 O     -0.0062070523     -0.0011936552     -0.0031694867
 H     -0.0106114986      0.0032143270     -0.0152161209
 H     -0.0037595937      0.0145940179      0.0093991072
 O     -0.0016282662     -0.0012946709      0.0035495566
 H      0.0045872665     -0.0019547483      0.0138734486
 H      0.0138396954      0.0126782750      0.0033694452
 N      0.0030369965      0.0040346930      0.0026843300
 C     -0.0012824827      0.0036527315     -0.0033808403
 C     -0.0084082294     -0.0090806233      0.0002077924
 N     -0.0029322687      0.0020745728      0.0026929638
 H      0.0127864203     -0.0134021511     -0.0107904950
 H     -0.0088778678      0.0178924845      0.0222569758
 H      0.0002983435     -0.0207581802     -0.0152606796
 H     -0.0120883617      0.0165743773     -0.0020242885
 H      0.0014527782      0.0104215331     -0.0035440610
 H      0.0049850737     -0.0037620856     -0.0081185049
 H      0.0032021729      0.0221985547     -0.0005936275
 H     -0.0148461371      0.0019445468     -0.0044699658
 N      0.0015455791      0.0021518063     -0.0057793021
 C     -0.0026176418     -0.0049065986      0.0030354696
 C      0.0050265498     -0.0044810538      0.0032603078
 N      0.0005120045     -0.0027378520      0.0020326542
 H     -0.0026598925     -0.0025286532     -0.0124979646
 H      0.0045406697     -0.0047199415     -0.0058105983
 H      0.0083334883     -0.0155018597      0.0112764352
 H     -0.0166477958     -0.0035806781      0.0062173562
 H      0.0043221947      0.0073685306      0.0140721733
 H      0.0041341157      0.0043811911      0.0111963431
 H      0.0028522564      0.0096518522     -0.0167105658
 H     -0.0009484708      0.0019871110      0.0119060452
 N      0.0022589282     -0.0026352865      0.0001597872
 C     -0.0003150950      0.0004865242     -0.0061685156
 C      0.0035953920     -0.0007809473      0.0002680649
 N      0.0039797577     -0.0046999477     -0.0021222074
 H      0.0061910100     -0.0025925859      0.0065082769
 H      0.0306442474     -0.0100129163      0.0191726207
 H     -0.0051362645     -0.0002275285      0.0048176387
 H     -0.0005219469     -0.0035512067      0.0226263889
 H      0.0081330194     -0.0035708965      0.0111213823
 H      0.0072211578      0.0012368929     -0.0094228886
 H     -0.0029189905      0.0063106395      0.0144885970
 H      0.0155884471     -0.0044361339     -0.0176396065
97
# ORCA AIMD Velocity Step 14000, t=3500.00 fs, E_Pot=-378753.11642822 kJ mol^-1, Unit is Angstrom fs^-1
Zn      0.0010323252      0.0005844641     -0.0054064041
 O     -0.0018916044     -0.0069044564     -0.0010525168
 H      0.0175174826      0.0073629932      0.0219794009
 H      0.0265635750      0.0064366658     -0.0204984822
 O     -0.0051538612      0.0019337845      0.0019165663
 H      0.0012381727      0.0072986042      0.0104347100
 H     -0.0003186139      0.0055736818      0.0020703818
 O     -0.0058042414     -0.0009713044     -0.0038187650
 H     -0.0021008571      0.0045017112     -0.0043117812
 H      0.0057284019      0.0008394767      0.0072856941
 O      0.0020367522      0.0012597868      0.0065456577
 H     -0.0102101302     -0.0228422751      0.0183537132
 H      0.0177433095     -0.0282805490      0.0096449333
 O      0.0016983957     -0.0037852489     -0.0009813308
 H      0.0376483015      0.0111673949      0.0001438293
 H     -0.0178167548     -0.0019083064      0.0045695059
 O      0.0039715446     -0.0033297343      0.0039878213
 H      0.0076646074     -0.0070818974      0.0075633170
 H     -0.0072183546      0.0173983471      0.0073024459
 O     -0.0014232055      0.0121331214     -0.0016981217
 H      0.0080876897      0.0238746545      0.0172453697
 H     -0.0093860992      0.0160964344     -0.0024495226
 O      0.0052958658      0.0000698201      0.0016829887
 H     -0.0139172094      0.0141286476      0.0130323706
 H     -0.0040060722     -0.0049677093     -0.0000183246
 O      0.0095971923     -0.0010567436      0.0009743185
 H      0.0029271747      0.0329700989      0.0022443074
 H     -0.0140210857     -0.0120222129     -0.0098572236
 O     -0.0079295361     -0.0005067256      0.0018078263
 H      0.0297181318      0.0064280795      0.0222608852
 H     -0.0157741122     -0.0434243192      0.0351346862
 O     -0.0062922901      0.0040610262     -0.0015906094
 H     -0.0235643020      0.0192600146     -0.0078006346
 H     -0.0065889314     -0.0110585437     -0.0044155773
 O      0.0075113439     -0.0073451126      0.0052978395
 H      0.0291614981     -0.0071097588      0.0079428553
 H     -0.0089385322      0.0013432189      0.0076173581
 O      0.0037880732     -0.0062887081      0.0082276827
 H      0.0180245365      0.0013639620     -0.0082406602
 H     -0.0205478152     -0.0126084713      0.0225510200
 O     -0.0025171560     -0.0070553158     -0.0013562428
 H      0.0109491309     -0.0305167279      0.0139952239
 H     -0.0043370381     -0.0303144027     -0.0418757037
 O     -0.0036342989     -0.0080905039     -0.0061311421
 H      0.0149491622     -0.0263501532     -0.0085441660
 H      0.0031423431      0.0075404256      0.0213552105
 O      0.0038750123     -0.0047107537      0.0055376294
 H     -0.0231263140     -0.0025575179      0.0049899953
 H      0.0011463745      0.0029622846     -0.0174165384
 O      0.0033082327     -0.0011992352      0.0049849877
 H      0.0071252326      0.0061939010     -0.0051760738
 H     -0.0070813413      0.0070968264      0.0065185446
 O     -0.0086083526      0.0093413927     -0.0012115711
 H      0.0215312809      0.0023486128      0.0091381261
 H     -0.0059281061     -0.0062540241      0.0077667677
 O     -0.0067801627      0.0026248641     -0.0045912989
 H     -0.0045806318     -0.0040686620      0.0007520328
 H     -0.0069722968      0.0161480035     -0.0069335656
 O     -0.0007133958      0.0017972929      0.0042050595
 H      0.0050556674     -0.0250671724      0.0018368233
 H      0.0014884557     -0.0141122543      0.0069934593
 N      0.0038998479     -0.0105429266     -0.0037626640
 C     -0.0008242547     -0.0035197288     -0.0012221761
 C     -0.0033292889     -0.0013268319     -0.0095968424
 N     -0.0016607870      0.0053197657     -0.0023324930
 H     -0.0069605518     -0.0059606602     -0.0088165745
 H      0.0060668962      0.0154011130      0.0051375061
 H      0.0198788502     -0.0126036125      0.0060913819
 H     -0.0244127278      0.0091152006      0.0079026729
 H      0.0197359202      0.0193810276     -0.0063390004
 H      0.0007251922      0.0090426299     -0.0221381989
 H     -0.0260218240     -0.0019409171     -0.0077064372
 H      0.0135916120      0.0034300365      0.0138815590
 N      0.0016452324     -0.0000227507     -0.0021497175
 C      0.0054312132     -0.0048260700      0.0015059796
 C      0.0043228857     -0.0044004370     -0.0022113943
 N     -0.0053064128      0.0023100469      0.0066434056
 H      0.0046307985     -0.0100907095      0.0068379339
 H     -0.0176259053     -0.0108853269     -0.0042311900
 H      0.0109072690     -0.0074904624     -0.0086010370
 H     -0.0041723121     -0.0036859340      0.0047332722
 H      0.0013045360     -0.0055552901     -0.0004978828
 H     -0.0023471442     -0.0310800844     -0.0120089100
 H     -0.0089506134      0.0021191092     -0.0112672449
 H      0.0131219854      0.0024374890      0.0068398608
 N      0.0050257220     -0.0024210823      0.0080299374
 C     -0.0089624639     -0.0011529630     -0.0046532540
 C      0.0023900306      0.0012698864     -0.0015418863
 N      0.0008287809      0.0044138819     -0.0019382909
 H      0.0049467990     -0.0139611924     -0.0285677890
 H     -0.0069729203     -0.0258905028      0.0086850226
 H     -0.0079695968     -0.0013586965     -0.0129321199
 H     -0.0082928864      0.0135566841     -0.0071296143
 H      0.0164514557      0.0104517595     -0.0138790781
 H      0.0041245894     -0.0210216596      0.0019871988
 H     -0.0160738674     -0.0108056177     -0.0164788072
 H     -0.0025631350      0.0051050979      0.0135173999
97
# ORCA AIMD Velocity Step 16000, t=4000.00 fs, E_Pot=-378789.39951404 kJ mol^-1, Unit is Angstrom fs^-1
Zn     -0.0020820157     -0.0006838085      0.0000312742
 O      0.0060881070      0.0008767767     -0.0054958315
 H     -0.0032376097     -0.0142694196      0.0182984808
 H     -0.0218662262     -0.0267263657     -0.0046356912
 O     -0.0050558397      0.0020457586      0.0021597883
 H      0.0047041920      0.0009866842      0.0040367468
 H      0.0024824828      0.0059155443      0.0003603955
 O      0.0056999377     -0.0026554126      0.0008087722
 H     -0.0000098664      0.0160776397      0.0144129514
 H      0.0107319493      0.0057721279     -0.0138002110
 O     -0.0036785370      0.0035875591      0.0010126278
 H      0.0087989527      0.0070010024     -0.0197751857
 H     -0.0006627559      0.0032466357     -0.0175692765
 O     -0.0021391676     -0.0039811517     -0.0068821626
 H      0.0171875686     -0.0079477453      0.0255564525
 H      0.0154420297      0.0182671036     -0.0317120360
 O      0.0005026451      0.0028697307     -0.0050269307
 H     -0.0049067445      0.0138067963     -0.0302831257
 H     -0.0225388560      0.0324500902      0.0006603578
 O     -0.0004724681      0.0114212464     -0.0003594285
 H     -0.0212210759      0.0154590605     -0.0032959011
 H      0.0070243110      0.0134014866     -0.0020240965
 O     -0.0004223388     -0.0000680929     -0.0043273284
 H      0.0400497732      0.0015101794     -0.0047018839
 H      0.0031427213      0.0038006876      0.0019446504
 O      0.0048304663     -0.0024554076      0.0016896866
 H      0.0090742614     -0.0281594279      0.0137263977
 H      0.0229180448     -0.0017265334      0.0092491245
 O     -0.0044012017     -0.0009353799      0.0046052643
 H     -0.0385616126     -0.0041490104     -0.0144381994
 H      0.0188740327     -0.0190684018      0.0118271550
 O     -0.0040447986      0.0023284419     -0.0007095576
 H     -0.0082011593     -0.0137058335     -0.0003408787
 H      0.0033531389      0.0046895847     -0.0070557420
 O      0.0078970804     -0.0068568870      0.0051313374
 H     -0.0153605238     -0.0000708857      0.0046780084
 H      0.0159746369     -0.0016802935      0.0041122177
 O      0.0030580978     -0.0055255164      0.0067456858
 H     -0.0208290660     -0.0110666353      0.0185666789
 H      0.0226877399      0.0011010463      0.0074217152
 O     -0.0009799510     -0.0110046315     -0.0009136315
 H     -0.0295001989      0.0168334509     -0.0181138096
 H      0.0148471936      0.0023001991     -0.0124163960
 O     -0.0014335727     -0.0057867324     -0.0033875577
 H     -0.0240424720     -0.0271731870     -0.0221917743
 H      0.0112081680     -0.0146942857      0.0001235992
 O      0.0021059072     -0.0045520834      0.0036779755
 H      0.0006592908      0.0036592641      0.0224139393
 H      0.0030504499     -0.0001332875     -0.0150059677
 O      0.0024230298     -0.0019598799      0.0032945442
 H     -0.0075978947      0.0120920879      0.0125205060
 H      0.0164027900      0.0132323752      0.0075783424
 O     -0.0081935834      0.0082345077      0.0001399312
 H      0.0001715246      0.0067544816     -0.0001373498
 H      0.0204240663     -0.0066994694     -0.0043351291
 O     -0.0050986742      0.0009628025     -0.0049984628
 H     -0.0022091142      0.0148956059      0.0015133127
 H     -0.0144980105      0.0094182578      0.0105853779
 O     -0.0014201247     -0.0011026776      0.0038639432
 H      0.0030370910      0.0112823515     -0.0030488884
 H      0.0170633231     -0.0042720996      0.0084775840
 N      0.0139059633     -0.0072659984     -0.0090196136
 C      0.0043437622      0.0012956608      0.0038770046
 C     -0.0001010048      0.0004323041     -0.0022520848
 N     -0.0027578562     -0.0023178130     -0.0004498498
 H     -0.0079947258      0.0001249460     -0.0213422401
 H      0.0230328068      0.0047073712     -0.0026529284
 H     -0.0102697939     -0.0155851204     -0.0298914850
 H     -0.0080371585      0.0017361634      0.0129832552
 H     -0.0045428460      0.0094727710      0.0221178682
 H     -0.0026560658     -0.0027913100      0.0125927334
 H      0.0012516350      0.0142092547     -0.0137534900
 H      0.0217862122     -0.0073808803     -0.0003957765
 N      0.0052897852     -0.0058965670      0.0083306961
 C     -0.0034735927     -0.0032353079     -0.0028220910
 C     -0.0001879458      0.0000825806     -0.0072474243
 N     -0.0009396093     -0.0004913546      0.0008675791
 H      0.0047190094      0.0024395712     -0.0051955255
 H      0.0204736079     -0.0009026537      0.0119860567
 H      0.0072706173     -0.0063924252      0.0005300564
 H      0.0077863370     -0.0229961954     -0.0091082166
 H     -0.0107078761     -0.0045322812      0.0039684048
 H      0.0030198679      0.0116078839     -0.0001241761
 H     -0.0001605949      0.0046773571      0.0065532998
 H     -0.0019561133     -0.0010050862      0.0088565335
 N      0.0012684407      0.0055175249      0.0015277528
 C     -0.0046457191     -0.0022505226      0.0034493734
 C      0.0037616612     -0.0014317413     -0.0028631205
 N     -0.0026931307     -0.0110778667      0.0029152967
 H     -0.0245953892      0.0151628959     -0.0009366831
 H      0.0026716717     -0.0106626529     -0.0044204680
 H     -0.0065396208     -0.0039252207      0.0119721139
 H     -0.0008946702      0.0110923130     -0.0210801664
 H      0.0069296669     -0.0061026453      0.0174257199
 H      0.0016394611     -0.0010852743      0.0052017945
 H      0.0046201321     -0.0009171673      0.0111504476
 H     -0.0073372257      0.0368359707     -0.0210017095
97
# ORCA AIMD Velocity Step 18000, t=4500.00 fs, E_Pot=-378744.06238804 kJ mol^-1, Unit is Angstrom fs^-1
Zn      0.0022374709      0.0002274210     -0.0003540716
 O      0.0036707910     -0.0026545315     -0.0060863555
 H      0.0067268280      0.0022598924      0.0135666533
 H      0.0352977301      0.0295335296     -0.0275101520
 O     -0.0056810996      0.0034580788      0.0027144029
 H     -0.0016162411     -0.0026791501      0.0029562421
 H      0.0048216715     -0.0052938766     -0.0000647741
 O      0.0027819454      0.0050288268     -0.0064900070
 H     -0.0189668648      0.0143851415     -0.0015955156
 H     -0.0025303966      0.0053586742     -0.0259477844
 O     -0.0051828719     -0.0072663173     -0.0046006580
 H      0.0066051114     -0.0122917874      0.0084810613
 H      0.0151223086      0.0180589299      0.0082150532
 O     -0.0010649491     -0.0034478007      0.0051236104
 H      0.0237402845      0.0189915663     -0.0187767563
 H     -0.0276232562     -0.0034354865      0.0126459536
 O      0.0014838957      0.0017306265     -0.0000229918
 H     -0.0138132791      0.0194766223     -0.0065715446
 H      0.0051943140      0.0011849874     -0.0178843349
 O     -0.0025340217      0.0139083546     -0.0006532602
 H      0.0242983062      0.0132963034     -0.0038413069
 H     -0.0099516605      0.0163117504      0.0010622011
 O      0.0063035281      0.0009792023      0.0058700890
 H      0.0152559232     -0.0285866207      0.0389084909
 H      0.0098542251      0.0159537929      0.0120147198
 O      0.0009892582      0.0037501348     -0.0012761194
 H      0.0272745269      0.0175957011     -0.0149552629
 H      0.0157311441      0.0084487025      0.0272176201
 O     -0.0076330782     -0.0015262932      0.0039555548
 H      0.0007174366     -0.0296288901     -0.0159033991
 H      0.0188996149      0.0105559911      0.0353015484
 O     -0.0023231496     -0.0007971671      0.0003782050
 H      0.0095768691     -0.0048589564     -0.0030545521
 H     -0.0042101197      0.0133222236     -0.0090706924
 O      0.0081651168     -0.0077141331      0.0060305659
 H      0.0123845910      0.0137865447      0.0188169770
 H      0.0008444319     -0.0157917705     -0.0110221122
 O      0.0020326679     -0.0070641531      0.0095660380
 H      0.0479736644     -0.0018346516      0.0068588545
 H     -0.0122212749     -0.0036144716     -0.0040698884
 O      0.0001908634     -0.0090779961     -0.0012686725
 H     -0.0012427031     -0.0200040272     -0.0217335719
 H     -0.0374083188     -0.0211041778     -0.0129016395
 O     -0.0029507978     -0.0088845496     -0.0057759038
 H     -0.0008773138      0.0120511538      0.0273605710
 H      0.0050956272     -0.0303500731     -0.0247404026
 O      0.0033995161     -0.0049798804      0.0038511335
 H      0.0096511342      0.0042494105      0.0098335755
 H     -0.0275737199     -0.0053793806      0.0107642137
 O      0.0026445494     -0.0019053776      0.0064597143
 H     -0.0109356003      0.0110835979     -0.0056649548
 H      0.0249846510      0.0119366721     -0.0112941430
 O     -0.0073277631      0.0100950819      0.0015507600
 H     -0.0140131760     -0.0128218233     -0.0273252383
 H     -0.0005291325      0.0081258728     -0.0005465021
 O     -0.0075846623      0.0019284329     -0.0056249759
 H      0.0103588942      0.0135736625     -0.0016692209
 H     -0.0055448850      0.0021871672      0.0120003875
 O      0.0009421030     -0.0007933784      0.0051772852
 H     -0.0157429290     -0.0054443028     -0.0130060325
 H     -0.0014170574      0.0051579509      0.0084119726
 N     -0.0007077766     -0.0045436922     -0.0028968230
 C     -0.0017279034     -0.0014058108     -0.0040984323
 C      0.0081534496     -0.0000501004      0.0003357143
 N     -0.0024678500     -0.0101192533     -0.0114385726
 H     -0.0382370328      0.0033062186     -0.0252483288
 H     -0.0096587920     -0.0072033133     -0.0196138604
 H     -0.0073141741      0.0121234908      0.0079047006
 H      0.0125290915      0.0183348569      0.0076590726
 H      0.0161763511     -0.0145379365     -0.0064037367
 H     -0.0273342490      0.0113821243     -0.0021007142
 H     -0.0107021864      0.0099826162     -0.0104461389
 H      0.0043301314      0.0133526607      0.0120346544
 N     -0.0008072436     -0.0032349335     -0.0028593049
 C     -0.0007118015      0.0024625437      0.0084835954
 C      0.0003650747     -0.0012264222      0.0038387983
 N      0.0030394021     -0.0086317832     -0.0047066506
 H     -0.0010054147     -0.0084395799     -0.0189098099
 H     -0.0069060479     -0.0013482130      0.0022185355
 H     -0.0025064316     -0.0094643493      0.0176592002
 H      0.0060813091      0.0198507762     -0.0089603756
 H     -0.0079115792      0.0012416935     -0.0153691792
 H      0.0067309076     -0.0057151402      0.0218807951
 H      0.0016267820     -0.0178507567      0.0063536648
 H      0.0171664585      0.0019181268     -0.0174656936
 N     -0.0008613065     -0.0060957702      0.0035265976
 C      0.0031353355     -0.0051060971     -0.0031056013
 C     -0.0025956490     -0.0040910488     -0.0084513884
 N     -0.0024062557     -0.0002912716      0.0001118572
 H      0.0078785166     -0.0101921406     -0.0134151000
 H      0.0139781628     -0.0028851849      0.0086038135
 H     -0.0090010735      0.0117719379      0.0048701421
 H     -0.0126839000     -0.0065437945     -0.0186149942
 H      0.0083795921      0.0148346918      0.0399105864
 H      0.0062073003      0.0001031181      0.0240178131
 H     -0.0059740265     -0.0185018634     -0.0001317355
 H      0.0110762008      0.0050031803     -0.0054609454
97
# ORCA AIMD Velocity Step 20000, t=5000.00 fs, E_Pot=-378753.93861305 kJ mol^-1, Unit is Angstrom fs^-1
Zn      0.0007481283     -0.0011280609      0.0005821512
 O      0.0052642260      0.0007109958     -0.0020469851
 H      0.0000687138     -0.0183889946     -0.0385982662
 H      0.0008966545     -0.0054737771     -0.0232170379
 O     -0.0037862527      0.0031626046      0.0026129437
 H     -0.0076540699     -0.0027661934      0.0027522304
 H     -0.0119532503     -0.0044103313     -0.0021209648
 O      0.0041050659     -0.0032936021     -0.0028182996
 H     -0.0054894558     -0.0126735532      0.0090599882
 H      0.0103664906     -0.0275315570     -0.0310688226
 O     -0.0015358669     -0.0006775199     -0.0030892633
 H      0.0306415406     -0.0064271024      0.0036892745
 H      0.0124373206      0.0198497035      0.0157254653
 O      0.0008282729     -0.0006897446      0.0001149867
 H     -0.0117324037      0.0157812581      0.0138401993
 H     -0.0114917512      0.0026134281     -0.0157126030
 O      0.0077752633      0.0021760463     -0.0053554989
 H     -0.0043160288      0.0055160890     -0.0021322864
 H     -0.0257711225     -0.0331595208      0.0040982866
 O     -0.0001622967      0.0125455176      0.0000457904
 H     -0.0244274833      0.0195001190     -0.0058717687
 H      0.0032552843      0.0109165478     -0.0068943570
 O      0.0016427153      0.0029443352     -0.0042894475
 H      0.0020382156      0.0112502485     -0.0174665132
 H      0.0049879927      0.0052935908      0.0093741387
 O     -0.0007212658      0.0003406270     -0.0034956063
 H     -0.0005879946     -0.0203408839      0.0066325901
 H      0.0102899481     -0.0265755063      0.0045139172
 O     -0.0015706965     -0.0034949849      0.0032917956
 H     -0.0028278420      0.0279222392      0.0250012613
 H     -0.0634696552     -0.0120624259     -0.0023901340
 O     -0.0009388646     -0.0010227910      0.0003118598
 H      0.0018008894      0.0083680920     -0.0060522194
 H     -0.0156719168      0.0041767604     -0.0043263898
 O      0.0038386171     -0.0048971797      0.0047246105
 H     -0.0062063973      0.0089541600     -0.0056158002
 H      0.0208720686      0.0097242868     -0.0064141702
 O      0.0069209740     -0.0079732966      0.0081165566
 H     -0.0157708257      0.0112906920     -0.0057747213
 H     -0.0198769295      0.0043817574      0.0142194251
 O      0.0012183762     -0.0112820375     -0.0019829370
 H     -0.0380911911      0.0021347044     -0.0021659870
 H     -0.0136178418      0.0078028078     -0.0166331454
 O     -0.0054463622     -0.0068548777     -0.0047528003
 H      0.0242492309     -0.0202836351     -0.0195625340
 H      0.0229476683     -0.0175038482      0.0134434599
 O      0.0010645887     -0.0041001043      0.0060310485
 H     -0.0030729057     -0.0019178646     -0.0214666641
 H      0.0074282405     -0.0028407078      0.0046138309
 O      0.0026909550     -0.0019210698      0.0059326064
 H     -0.0044848835      0.0118373956     -0.0049710932
 H      0.0129622949      0.0115300239     -0.0108143875
 O     -0.0046225204      0.0082513587      0.0005216247
 H     -0.0116307983      0.0054185012      0.0025894763
 H     -0.0350210518      0.0059590242     -0.0140226459
 O     -0.0062317187      0.0028126352     -0.0034627305
 H     -0.0023043315      0.0013269692     -0.0114371822
 H     -0.0046817091     -0.0034570698     -0.0055360745
 O      0.0009049806      0.0003859546      0.0028942841
 H     -0.0024027932     -0.0212022581      0.0124485164
 H     -0.0143046084      0.0035464565      0.0119112947
 N      0.0002072742      0.0077582024      0.0011334435
 C     -0.0010585123     -0.0043141242     -0.0014255462
 C     -0.0087473167     -0.0020451302     -0.0000289121
 N      0.0001860309     -0.0003297245      0.0055774406
 H     -0.0308882635     -0.0196910743      0.0191272782
 H      0.0331065042     -0.0002021878     -0.0316498637
 H     -0.0105659096      0.0040880424     -0.0149481216
 H     -0.0073285120     -0.0169091378     -0.0199140318
 H     -0.0014168795      0.0247264798      0.0092168247
 H      0.0225758270      0.0059211980      0.0223666624
 H      0.0010496026      0.0064487183      0.0014087585
 H      0.0123605058     -0.0152545782      0.0006611922
 N      0.0010265996      0.0039429297      0.0012028749
 C      0.0001181891     -0.0052677996      0.0027194747
 C      0.0012310607     -0.0089992293     -0.0017540165
 N      0.0006795526      0.0004931516      0.0014183992
 H     -0.0024302485     -0.0058770866     -0.0030491907
 H      0.0053487979     -0.0025826095      0.0017073277
 H      0.0155911228     -0.0128283087      0.0039985389
 H     -0.0054604651     -0.0006320663      0.0038204898
 H     -0.0047411606     -0.0164685750      0.0023692246
 H     -0.0018453570     -0.0071343887     -0.0251486143
 H      0.0069825246     -0.0025556155     -0.0040658179
 H     -0.0167378876      0.0068984704     -0.0008423384
 N      0.0008005026     -0.0003373234      0.0004330309
 C      0.0001233606     -0.0070471182     -0.0013039045
 C     -0.0015814731      0.0010864924     -0.0028749091
 N      0.0014505405     -0.0016872674     -0.0035733564
 H     -0.0015620094     -0.0308146947     -0.0065055030
 H      0.0267409324      0.0005526991     -0.0025755118
 H      0.0162069842     -0.0104122497     -0.0221625770
 H      0.0139761295     -0.0040286697      0.0044175705
 H      0.0046545611      0.0100613921      0.0268528442
 H     -0.0053991999     -0.0164546387      0.0063984256
 H     -0.0014004990     -0.0068347111     -0.0027624182
 H     -0.0016862977      0.0094301882     -0.0376497853
