97
# ORCA AIMD Velocity Step 0, t=0.00 fs, E_Pot=-378177.29225915 kJ mol^-1, Unit is Angstrom fs^-1
Zn      0.0005818760     -0.0024931213      0.0004385433
 O      0.0009493735      0.0006161159     -0.0022176757
 H     -0.0129089623     -0.0088314979     -0.0269321806
 H      0.0097014646      0.0239658294      0.0182022235
 O     -0.0092517102      0.0021841243     -0.0007495942
 H      0.0067042543      0.0094592454      0.0125440185
 H     -0.0078385558     -0.0105226061      0.0402244903
 O      0.0038989763      0.0002744486     -0.0004918181
 H      0.0088471433     -0.0029876029      0.0275648272
 H      0.0003796887      0.0287917898     -0.0009757116
 O     -0.0057340396     -0.0050542436     -0.0039710086
 H     -0.0158179149      0.0170385763      0.0013566317
 H      0.0191104748      0.0025192212     -0.0231042995
 O     -0.0010511156     -0.0029256505      0.0020795935
 H      0.0290343448      0.0089706563      0.0236089229
 H     -0.0040529248      0.0025244306      0.0212453854
 O      0.0040912109      0.0028791302     -0.0014763671
 H     -0.0071531194     -0.0200267193      0.0189551456
 H      0.0176593079     -0.0015382640     -0.0146753473
 O      0.0002449791      0.0057339475     -0.0073897758
 H     -0.0071313721     -0.0142742785     -0.0275462986
 H      0.0081761655      0.0352929883      0.0029060114
 O      0.0012829914     -0.0000336370     -0.0011302066
 H     -0.0013907048     -0.0070378041      0.0063160106
 H      0.0236919150      0.0028391240      0.0037055267
 O      0.0079379235      0.0001281880      0.0035055908
 H     -0.0083239466     -0.0180190164     -0.0242248067
 H     -0.0203630108      0.0089864424     -0.0154476140
 O      0.0043525786      0.0088503642     -0.0016700674
 H      0.0039377853      0.0103995074      0.0224304720
 H      0.0001757595     -0.0139240666     -0.0212967863
 O      0.0026779249      0.0014148851      0.0047225963
 H     -0.0154019302     -0.0067649631      0.0281230665
 H      0.0056421465      0.0024800671     -0.0026672243
 O     -0.0025609709      0.0011914281     -0.0013204113
 H      0.0034884283      0.0069455402     -0.0034787771
 H     -0.0022297963     -0.0151192269     -0.0031904290
 O      0.0011220564     -0.0077090302     -0.0026235726
 H     -0.0276017051     -0.0035697661      0.0381330428
 H     -0.0095774395      0.0126848181     -0.0179489715
 O     -0.0005900917     -0.0055297099     -0.0065499685
 H     -0.0067276985     -0.0083954257     -0.0054799671
 H      0.0210281675     -0.0049588927     -0.0197271438
 O     -0.0034031800      0.0000203005      0.0043793923
 H     -0.0081748209      0.0299000878      0.0054322355
 H      0.0092211831      0.0355193585      0.0035212876
 O     -0.0013243079     -0.0002873999     -0.0017838069
 H      0.0059709053     -0.0080412630      0.0270328937
 H      0.0483532377      0.0036664283      0.0034492543
 O      0.0016546142     -0.0012400989     -0.0028659421
 H      0.0023478379     -0.0122868363     -0.0085491957
 H     -0.0075993432      0.0307155811     -0.0152621104
 O     -0.0029096139     -0.0038824095      0.0068161235
 H     -0.0158119844      0.0055890327     -0.0066787038
 H     -0.0138423384      0.0052825001      0.0185953609
 O      0.0036841813     -0.0054571617      0.0065955832
 H     -0.0109199503     -0.0196145176     -0.0117000912
 H     -0.0193005401     -0.0093724079     -0.0064402032
 O     -0.0005470204      0.0039351602     -0.0024648135
 H     -0.0028583207     -0.0136537057      0.0117300627
 H      0.0312239481     -0.0051366859      0.0065532612
 N     -0.0026594893     -0.0002071013     -0.0022286010
 C      0.0003245645      0.0048907400      0.0005524916
 C      0.0030719370      0.0052189684      0.0017506937
 N     -0.0011742303     -0.0043104577      0.0043263455
 H      0.0129575484     -0.0381898217      0.0162593785
 H      0.0098261669      0.0312901488      0.0326003528
 H     -0.0247371219     -0.0143557394      0.0030759786
 H     -0.0216431421     -0.0089400155     -0.0053437407
 H     -0.0170660138      0.0042851645      0.0055650683
 H     -0.0203306636     -0.0154269651     -0.0193666136
 H     -0.0051181268      0.0035532741      0.0110329878
 H      0.0245807198     -0.0090641141     -0.0280541541
 N     -0.0058183962     -0.0024277438     -0.0046812571
 C      0.0056705032     -0.0061634282      0.0002570586
 C     -0.0017113569     -0.0011697883      0.0040841495
 N      0.0027535485      0.0022519313     -0.0007215722
 H      0.0017591850      0.0017667862      0.0111530076
 H     -0.0245916469      0.0139723898      0.0068630042
 H     -0.0055550219     -0.0081836083      0.0166325705
 H      0.0066996049      0.0065888856     -0.0027790596
 H      0.0050089899      0.0188690222     -0.0114729663
 H     -0.0049919195      0.0315453601     -0.0147084969
 H     -0.0214358064      0.0198464300      0.0013164122
 H     -0.0061694465      0.0076053835     -0.0012863443
 N      0.0013779768      0.0061262006      0.0105616965
 C     -0.0057428384     -0.0015460980     -0.0066883048
 C     -0.0001327910     -0.0031544093     -0.0080719704
 N     -0.0018810719      0.0078041833     -0.0005542158
 H      0.0219394183      0.0021916940      0.0041144654
 H      0.0036441379      0.0219833454     -0.0169209275
 H     -0.0068634252     -0.0109111331      0.0063976182
 H      0.0191933291      0.0080796193     -0.0010588417
 H      0.0030064309     -0.0003014704      0.0031722595
 H     -0.0090082245     -0.0243406667     -0.0049957062
 H     -0.0184516289      0.0136075112      0.0182621910
 H      0.0233375077     -0.0010565681     -0.0050392890
97
# ORCA AIMD Velocity Step 2000, t=500.00 fs, E_Pot=-378822.78054545 kJ mol^-1, Unit is Angstrom fs^-1
Zn      0.0020507210     -0.0003879359     -0.0049648058
 O     -0.0005782971     -0.0154643331     -0.0045573382
 H     -0.0109352792      0.0290117630     -0.0075586064
 H      0.0136368905     -0.0225127388      0.0004850565
 O     -0.0013332268     -0.0036156838      0.0046978775
 H     -0.0049423166      0.0111207815      0.0077477943
 H      0.0178451712     -0.0136372563     -0.0148993818
 O     -0.0080142257     -0.0018467261     -0.0029329248
 H     -0.0165236238     -0.0082676578     -0.0005998115
 H     -0.0093044682     -0.0031331560      0.0392016377
 O     -0.0054354099      0.0041306713     -0.0066046173
 H     -0.0061003101      0.0003046709     -0.0045760410
 H      0.0029179109      0.0253463535     -0.0056926230
 O     -0.0051491648     -0.0036201784      0.0019694486
 H      0.0155681832     -0.0119174180     -0.0215567106
 H     -0.0117078096     -0.0162131219      0.0000422171
 O     -0.0076733860     -0.0089537079      0.0026640215
 H     -0.0127134330     -0.0108151836      0.0265011960
 H     -0.0113252497     -0.0082574915      0.0187548364
 O      0.0038518986      0.0014698430     -0.0038645772
 H     -0.0145034508     -0.0041842935     -0.0019715908
 H      0.0030350929      0.0116595934     -0.0079509573
 O     -0.0009073006      0.0040417171     -0.0071700774
 H     -0.0177351219      0.0247642228     -0.0143269125
 H     -0.0189135371      0.0316068695     -0.0001443918
 O     -0.0143164776     -0.0054814871      0.0082910416
 H     -0.0189822892     -0.0128017296     -0.0016370032
 H      0.0326273130      0.0124965641     -0.0170963896
 O     -0.0036578426     -0.0092958414     -0.0057229208
 H     -0.0177833197     -0.0042102027     -0.0284858803
 H     -0.0119430826     -0.0188316343      0.0153475774
 O     -0.0006750521     -0.0082716879      0.0012551549
 H     -0.0414593903      0.0002124899      0.0166322921
 H      0.0372015860     -0.0272084836     -0.0026022589
 O     -0.0020631222     -0.0014636241      0.0020590596
 H      0.0103055819      0.0174195254     -0.0194566327
 H     -0.0193091724      0.0097432087     -0.0002347940
 O      0.0057829204     -0.0001501783      0.0019767649
 H      0.0275202673     -0.0237522155     -0.0126220041
 H      0.0121502388     -0.0094010907     -0.0103923790
 O     -0.0060346945     -0.0040037984     -0.0011460043
 H      0.0083427855     -0.0095267614      0.0182913010
 H     -0.0209074460      0.0049440869      0.0278987261
 O     -0.0091662313     -0.0004940442     -0.0028993971
 H      0.0017996522      0.0157788385      0.0168713965
 H     -0.0281428918      0.0360233136     -0.0071644041
 O     -0.0045356736     -0.0052418416     -0.0064370424
 H      0.0105145485     -0.0039906600     -0.0023044859
 H      0.0086717810     -0.0090484698      0.0229629954
 O      0.0056549725     -0.0012411950      0.0071847442
 H     -0.0243400445     -0.0112276586     -0.0175853842
 H      0.0022501935     -0.0237841700      0.0224469570
 O     -0.0028741588      0.0061725061     -0.0016760452
 H      0.0012400565     -0.0127474271      0.0043759915
 H      0.0014351453      0.0071597460      0.0039701087
 O      0.0024168384     -0.0004645346     -0.0076459877
 H     -0.0065895635      0.0061825210      0.0155210018
 H     -0.0033665770      0.0016716821     -0.0049565719
 O      0.0040770343      0.0038437736     -0.0059187301
 H      0.0103773842      0.0034027929     -0.0006330830
 H     -0.0172089310     -0.0083764804     -0.0000784531
 N      0.0089112281     -0.0052166444      0.0056241989
 C      0.0011494263     -0.0057354596     -0.0000105532
 C      0.0093845475      0.0087864666      0.0006171584
 N      0.0011791880      0.0054312711      0.0025139834
 H     -0.0097340812      0.0062437590      0.0160423695
 H      0.0158034400     -0.0016242097      0.0184366910
 H      0.0120860774      0.0080729057      0.0017695953
 H     -0.0035515977      0.0023430212      0.0005887601
 H      0.0272715360      0.0163470855     -0.0079150841
 H      0.0157350202     -0.0029015366     -0.0215489053
 H     -0.0227814866      0.0182492982     -0.0009315766
 H      0.0057145016      0.0045210602      0.0063616246
 N     -0.0055280006     -0.0058785781     -0.0003604813
 C     -0.0041410935     -0.0028235515     -0.0020619535
 C      0.0021294145     -0.0082301925     -0.0062224323
 N     -0.0015845006     -0.0030562767      0.0030076835
 H     -0.0108746236      0.0099676426      0.0004308162
 H     -0.0120591015     -0.0074577417      0.0065077854
 H     -0.0020441816     -0.0005873609      0.0025970168
 H     -0.0077487869     -0.0067817834     -0.0020944918
 H     -0.0028543539     -0.0055404113     -0.0138525904
 H      0.0175933314      0.0069789818     -0.0023815926
 H     -0.0037228590     -0.0013751381      0.0009303022
 H     -0.0103902338      0.0015600541      0.0048615947
 N      0.0036181466      0.0057309790     -0.0081005635
 C     -0.0001670412      0.0074898744     -0.0013892561
 C      0.0092118329      0.0078051932      0.0052340690
 N     -0.0033424152     -0.0001788810     -0.0001748467
 H      0.0052205387      0.0006905875     -0.0149529334
 H      0.0174734293      0.0160915950     -0.0215136673
 H      0.0046341735      0.0031428388     -0.0014346340
 H     -0.0036751527      0.0084405077     -0.0044212570
 H      0.0114880596      0.0019684404      0.0070629926
 H     -0.0041342167      0.0100209673      0.0070642930
 H      0.0102577859      0.0223383734     -0.0254333070
 H     -0.0036285382      0.0233378992      0.0055076566
97
# ORCA AIMD Velocity Step 4000, t=1000.00 fs, E_Pot=-378850.30039959 kJ mol^-1, Unit is Angstrom fs^-1
Zn     -0.0034265432      0.0020872010     -0.0030292822
 O      0.0007894377     -0.0090519248     -0.0018168616
 H      0.0005989765     -0.0181174171      0.0139059338
 H     -0.0023136318     -0.0024923816      0.0065150544
 O     -0.0110111450     -0.0064630937      0.0027023473
 H     -0.0049705969     -0.0023502190     -0.0006402652
 H     -0.0214704713      0.0032128948     -0.0127247865
 O      0.0053508631      0.0000112865      0.0046807727
 H      0.0124350333      0.0143688197      0.0155517248
 H      0.0210784745     -0.0046434200     -0.0203396066
 O      0.0000510422      0.0037910257     -0.0024977018
 H      0.0077968184      0.0022521728      0.0084248910
 H     -0.0067188392     -0.0202895631      0.0020107092
 O      0.0061545066     -0.0034299894     -0.0014063519
 H      0.0038763785      0.0246463752     -0.0202976950
 H      0.0310531603      0.0327233482     -0.0025140075
 O     -0.0015906624      0.0067566836      0.0041439521
 H     -0.0090531539      0.0081094991     -0.0034872394
 H      0.0083728424      0.0244484722     -0.0150224165
 O      0.0042923565     -0.0048330247      0.0019481293
 H      0.0036098027      0.0040748668      0.0104537185
 H      0.0276712658     -0.0054542426      0.0196344324
 O      0.0023627221     -0.0048513097      0.0038153563
 H     -0.0079637054     -0.0050982561      0.0032175898
 H      0.0043210892      0.0102037241      0.0189012390
 O     -0.0037788989      0.0043835004      0.0021056378
 H     -0.0153198838     -0.0212711313      0.0324210395
 H     -0.0087628426      0.0059450715     -0.0057239189
 O      0.0023514301     -0.0010422328     -0.0002730008
 H     -0.0134262349     -0.0548954236      0.0220439935
 H      0.0011317464      0.0054160175      0.0216771246
 O     -0.0050591718      0.0003958952     -0.0096861540
 H      0.0256403033      0.0007511463      0.0091057016
 H     -0.0092842059      0.0036854277     -0.0234612646
 O     -0.0010424039      0.0053359863     -0.0008360782
 H     -0.0166076443      0.0167887118     -0.0089221045
 H      0.0165507444     -0.0031037710      0.0010006793
 O      0.0015098280      0.0037572797     -0.0026110021
 H      0.0118616105      0.0169989872     -0.0035678864
 H      0.0042742655      0.0166258362      0.0165962452
 O     -0.0048088237      0.0046360715     -0.0034085801
 H     -0.0021751589      0.0387304102      0.0214352041
 H      0.0045788634      0.0079750331     -0.0163707419
 O      0.0008131845      0.0052634690      0.0073190471
 H      0.0260893782      0.0164733054     -0.0036851395
 H     -0.0153764038      0.0270016299      0.0138662250
 O      0.0022208567     -0.0024502868      0.0021786689
 H      0.0105972714     -0.0121184833     -0.0211547917
 H     -0.0129583873     -0.0010668039      0.0016864599
 O      0.0033046432     -0.0019571713     -0.0078869100
 H     -0.0020658815      0.0192888897     -0.0005993595
 H     -0.0004757634     -0.0238902548     -0.0197117030
 O     -0.0072016509     -0.0031418225     -0.0021986655
 H     -0.0199156195     -0.0009088477      0.0059699040
 H     -0.0255007118      0.0102822430     -0.0152333214
 O      0.0056537093      0.0053917485     -0.0003252312
 H      0.0111706791     -0.0028691188      0.0022609595
 H      0.0176129631     -0.0104932833      0.0490458014
 O     -0.0031363677      0.0053900696      0.0096588944
 H     -0.0033978980      0.0019446775      0.0222774471
 H     -0.0104168748      0.0224667700     -0.0111956197
 N      0.0014374517     -0.0012559448     -0.0044966762
 C      0.0000270181     -0.0006832036     -0.0000019388
 C     -0.0036369222      0.0006319889      0.0016441113
 N      0.0069608582     -0.0007950385     -0.0042513458
 H     -0.0089583353     -0.0384390691     -0.0005508354
 H     -0.0214477196     -0.0156311610      0.0011374938
 H      0.0075209866     -0.0050189343      0.0111470826
 H      0.0129682118     -0.0021494009      0.0080144410
 H     -0.0055793694      0.0273309925     -0.0025038021
 H      0.0000518137      0.0322869858      0.0041064694
 H      0.0094700868      0.0189637938      0.0226514875
 H     -0.0152976778      0.0006042106     -0.0079274531
 N     -0.0068341609      0.0060499493     -0.0014891185
 C      0.0033727626      0.0003133445     -0.0027935926
 C     -0.0017326647      0.0026114606     -0.0025030401
 N     -0.0032672561      0.0030605869      0.0013495251
 H     -0.0055659582      0.0135470542     -0.0003513361
 H     -0.0015474733      0.0097656585     -0.0032746786
 H      0.0140521072     -0.0033172229     -0.0070239898
 H     -0.0009664839     -0.0225513888     -0.0097881480
 H     -0.0052267697      0.0066066982     -0.0054655630
 H     -0.0065508729      0.0178846011      0.0173126325
 H     -0.0010697625     -0.0033753692     -0.0108174293
 H     -0.0010599049     -0.0009439154     -0.0072238354
 N      0.0048432708     -0.0011991685     -0.0016128775
 C     -0.0095487630      0.0001377626     -0.0016452450
 C     -0.0088905276      0.0051433077     -0.0031913839
 N     -0.0050921429     -0.0019259417      0.0071997375
 H      0.0162750024      0.0044338348      0.0042028912
 H      0.0081502571     -0.0252473333     -0.0001533289
 H     -0.0105303714      0.0042040380     -0.0083820731
 H     -0.0237753246      0.0082041574      0.0102959791
 H      0.0088397056      0.0115699938     -0.0084189439
 H     -0.0112740561     -0.0000871780      0.0014494089
 H     -0.0172820895     -0.0138570412      0.0200330711
 H     -0.0156842171     -0.0058469553      0.0013776604
97
# ORCA AIMD Velocity Step 6000, t=1500.00 fs, E_Pot=-378878.27175272 kJ mol^-1, Unit is Angstrom fs^-1
Zn      0.0053235515      0.0001135650      0.0022846097
 O     -0.0090860133     -0.0015075011     -0.0012212703
 H     -0.0081207701     -0.0051449436      0.0007955525
 H     -0.0004226548     -0.0118739305     -0.0119825577
 O      0.0033265144      0.0045003735     -0.0027705955
 H     -0.0042972714     -0.0106334435     -0.0190421776
 H      0.0095446094      0.0091116072      0.0054045672
 O     -0.0015773989      0.0072102715      0.0027773072
 H      0.0303602320     -0.0154420675     -0.0231803945
 H      0.0134688163      0.0150675908     -0.0111537839
 O     -0.0009590478     -0.0052947257      0.0018096979
 H     -0.0098212665      0.0004333507      0.0027580007
 H     -0.0059851345     -0.0104865962     -0.0208005417
 O     -0.0092185496      0.0032420538      0.0017147841
 H     -0.0008430426     -0.0065677014      0.0050477230
 H      0.0066130684     -0.0251218845      0.0113415501
 O     -0.0006107690      0.0115431637     -0.0007220955
 H     -0.0201198682      0.0179425219     -0.0067125942
 H     -0.0172706604      0.0256631829      0.0012673662
 O     -0.0030220057      0.0031719928     -0.0012907907
 H     -0.0123129493      0.0312749064      0.0108423937
 H     -0.0066931506      0.0212139735     -0.0037442126
 O      0.0017401092     -0.0036910869     -0.0026873009
 H      0.0155231075      0.0062477420      0.0220663851
 H     -0.0067173725     -0.0090443346      0.0005717725
 O      0.0056686982     -0.0003765062      0.0053248489
 H      0.0161980540     -0.0088775007      0.0027746953
 H      0.0111554653      0.0200519386     -0.0250798879
 O     -0.0074780521      0.0000126119      0.0017186415
 H     -0.0065696143     -0.0032042436     -0.0480777082
 H      0.0151015491     -0.0191146135     -0.0024450558
 O      0.0065827512     -0.0029074478     -0.0075497005
 H      0.0079716828     -0.0088516776      0.0006432402
 H      0.0155703847      0.0042631356     -0.0065278288
 O      0.0001434715      0.0001016498     -0.0036078700
 H     -0.0238946641      0.0235488394     -0.0152608672
 H     -0.0072085181     -0.0102233506     -0.0266609600
 O      0.0027166249      0.0062805832     -0.0073268921
 H      0.0130637574      0.0110419218     -0.0116590132
 H     -0.0070242206     -0.0005640352      0.0219718633
 O     -0.0015723953      0.0044410116      0.0012747869
 H      0.0078698364     -0.0035466157     -0.0000655837
 H      0.0064629770      0.0333313126     -0.0115874037
 O      0.0066113346      0.0067311898      0.0027028321
 H      0.0157015229     -0.0115368199      0.0166576960
 H      0.0119764249      0.0269324581      0.0034648185
 O      0.0037162539     -0.0004338510     -0.0056278925
 H      0.0082046635     -0.0017726479     -0.0160278698
 H     -0.0112591062     -0.0287186963      0.0020825401
 O      0.0022633069      0.0071309596      0.0055298819
 H     -0.0192230148      0.0211622588     -0.0143382561
 H     -0.0326844859     -0.0161756918     -0.0133742039
 O      0.0023760124      0.0051585687      0.0095246874
 H      0.0232140180     -0.0040688449      0.0053808592
 H      0.0332554099      0.0273477502      0.0097894158
 O      0.0049771928      0.0047983001      0.0020947674
 H     -0.0033428904     -0.0313216379      0.0146645671
 H      0.0194873394      0.0201962157     -0.0144140356
 O      0.0024746932     -0.0019097357      0.0085866717
 H     -0.0181857814      0.0045934137     -0.0103535167
 H      0.0066793793     -0.0266564309     -0.0078179057
 N     -0.0025303694      0.0032918847      0.0014987113
 C      0.0009346841     -0.0004625819      0.0028519358
 C      0.0035224425      0.0033216056      0.0031551173
 N      0.0002162908      0.0009452320     -0.0015208995
 H      0.0090821774      0.0165199670      0.0206497044
 H      0.0043439878      0.0071514059     -0.0067613644
 H     -0.0072374868     -0.0008024423      0.0044131926
 H     -0.0056412479      0.0018254036     -0.0054586964
 H      0.0061627228      0.0115128183      0.0008285736
 H      0.0047338417      0.0012837985      0.0021242279
 H     -0.0039596701      0.0051142284      0.0105767790
 H      0.0081573474      0.0024522997     -0.0057415975
 N      0.0045155599      0.0035595237     -0.0008306507
 C     -0.0024223868      0.0087179192      0.0033233267
 C     -0.0036232947     -0.0051104047     -0.0042330851
 N     -0.0088945495     -0.0060814028      0.0081549129
 H     -0.0081261948     -0.0025579302     -0.0007138679
 H      0.0098860394     -0.0035453011     -0.0052382289
 H     -0.0080994736      0.0098827593     -0.0090258248
 H      0.0012533798      0.0140711039      0.0129231721
 H      0.0009817903     -0.0157257087      0.0010325356
 H      0.0002897200      0.0057697044     -0.0297893721
 H      0.0026423480      0.0064569214      0.0048029331
 H     -0.0092992292      0.0029878353      0.0010965408
 N      0.0076537638      0.0088599089     -0.0006338569
 C     -0.0008568035     -0.0045493865      0.0024258774
 C     -0.0037873202      0.0038298964     -0.0023739076
 N      0.0113445000      0.0022724374     -0.0094646975
 H      0.0123969473      0.0419268939     -0.0073718887
 H      0.0042278388      0.0011421332      0.0130937674
 H     -0.0077792598     -0.0021465186      0.0046950312
 H      0.0144329370      0.0182795124      0.0006786484
 H      0.0027187851      0.0161946559      0.0101907809
 H      0.0161761145      0.0281628719     -0.0025310051
 H      0.0254740244      0.0012655916     -0.0144714035
 H     -0.0066298320     -0.0125672753      0.0056630690
97
# ORCA AIMD Velocity Step 8000, t=2000.00 fs, E_Pot=-378930.01961947 kJ mol^-1, Unit is Angstrom fs^-1
Zn     -0.0027950002      0.0032215363     -0.0018087616
 O      0.0017388800     -0.0009026206     -0.0016607735
 H      0.0042246436     -0.0103158118     -0.0110187352
 H      0.0114088194      0.0222393873      0.0121042284
 O      0.0038547558     -0.0006569614      0.0008572659
 H     -0.0003958260     -0.0304884205      0.0016862578
 H      0.0106544702     -0.0112504377     -0.0140791429
 O      0.0102508600     -0.0035980616      0.0142683494
 H      0.0214289622     -0.0398346033     -0.0021351412
 H      0.0234288139     -0.0177672950     -0.0415821518
 O      0.0086000017      0.0017538945      0.0083000788
 H      0.0057946154      0.0165346779      0.0088845919
 H      0.0093964046      0.0090626137      0.0140707487
 O     -0.0001421373     -0.0027279766     -0.0072835536
 H      0.0041047955      0.0031197915     -0.0064349047
 H      0.0022700392     -0.0294571119      0.0036525302
 O      0.0018565658     -0.0025512732     -0.0010288732
 H      0.0172652775      0.0146496253     -0.0238776079
 H     -0.0046283747     -0.0160078324      0.0024216171
 O      0.0047932129     -0.0052441692     -0.0069337500
 H      0.0105613564      0.0144797182     -0.0115942108
 H      0.0115751131      0.0222687800      0.0031507550
 O     -0.0003143850      0.0071014496     -0.0020693355
 H     -0.0309567760      0.0185582777     -0.0095811146
 H     -0.0130932880      0.0123007797     -0.0001003607
 O     -0.0028089878      0.0055574638      0.0016566995
 H      0.0161936553     -0.0081378956      0.0211100810
 H      0.0453404788     -0.0199891476     -0.0205435036
 O      0.0019122325     -0.0071576165      0.0003249969
 H      0.0260480136      0.0146471410      0.0027608103
 H      0.0261034620      0.0097057063     -0.0127617392
 O      0.0044689315     -0.0052811204     -0.0003133539
 H      0.0044324861     -0.0065061612      0.0044145651
 H      0.0075152998      0.0124553857     -0.0038922810
 O     -0.0018931453      0.0043743484     -0.0031034330
 H     -0.0326909661      0.0210263429     -0.0106043285
 H     -0.0013760720      0.0067506430     -0.0264065883
 O      0.0043633425     -0.0034077660     -0.0007200732
 H      0.0125628537      0.0060083799      0.0411044904
 H     -0.0316808838     -0.0055100705     -0.0043539702
 O     -0.0066044551     -0.0001470203     -0.0009236235
 H      0.0035719211     -0.0139154766     -0.0091676037
 H     -0.0002465996      0.0086461244      0.0161105750
 O     -0.0077234098     -0.0041460955      0.0039418359
 H     -0.0018961118      0.0114049622      0.0033606373
 H     -0.0162728916      0.0022936624     -0.0024030116
 O     -0.0069185695      0.0052911745      0.0028746049
 H     -0.0146165573     -0.0141880627     -0.0215624943
 H     -0.0004034118      0.0260224844     -0.0125854917
 O      0.0002515369     -0.0027513174      0.0048591685
 H     -0.0161127685     -0.0124016953      0.0009676285
 H      0.0018154929      0.0007187871      0.0089735870
 O      0.0031649963     -0.0017656117     -0.0004889233
 H      0.0059344224     -0.0112735105      0.0011999863
 H      0.0297831726     -0.0091521082     -0.0029928593
 O      0.0071331866      0.0033709677     -0.0058821431
 H     -0.0069882168     -0.0018980486     -0.0090660248
 H     -0.0029151671     -0.0023789780      0.0162674203
 O     -0.0044227400      0.0013271399      0.0074980010
 H      0.0158550050      0.0026843739      0.0140690288
 H      0.0007482296     -0.0124258798      0.0022004410
 N     -0.0022108291     -0.0021898707     -0.0042250972
 C     -0.0039679510     -0.0042191196     -0.0063851340
 C     -0.0012827519      0.0026107600     -0.0072620454
 N      0.0009198185     -0.0019374947      0.0086105656
 H      0.0011570240      0.0104017702     -0.0076542231
 H      0.0208829825     -0.0000516015     -0.0141357650
 H      0.0026004559     -0.0143142801     -0.0195827730
 H      0.0189004575      0.0167357488     -0.0045485348
 H      0.0028542603     -0.0008964399     -0.0135030742
 H     -0.0186662699     -0.0068740983     -0.0084629671
 H     -0.0108887575      0.0133470527      0.0021771549
 H      0.0111713183     -0.0102740233     -0.0024510927
 N     -0.0086422820     -0.0104556751      0.0012611464
 C     -0.0044228747     -0.0128966727      0.0001745811
 C      0.0018543310     -0.0033558581      0.0029286999
 N     -0.0017419762     -0.0007591996     -0.0023366738
 H     -0.0111378957     -0.0058150179      0.0108696991
 H     -0.0119142494     -0.0150720278     -0.0240620472
 H      0.0084684845     -0.0247245431     -0.0009280384
 H     -0.0118949180     -0.0230598642      0.0129134993
 H      0.0018154370     -0.0183278676     -0.0024382693
 H      0.0184909891      0.0167138808     -0.0097924296
 H     -0.0018043372     -0.0139331058     -0.0066623695
 H     -0.0089270344      0.0005856619      0.0072521440
 N     -0.0051204651      0.0061852483      0.0017404936
 C      0.0022742137      0.0033052105      0.0006847905
 C     -0.0017165319      0.0092856335      0.0007070340
 N      0.0064344375     -0.0014004429      0.0044658055
 H     -0.0163230131      0.0001815568      0.0008073071
 H      0.0122084805      0.0208458092      0.0131997702
 H      0.0156822535      0.0140368677      0.0086267264
 H     -0.0017740178      0.0090788349     -0.0022480421
 H     -0.0140557124     -0.0129439926     -0.0203006415
 H     -0.0227612397     -0.0140470599      0.0091518788
 H      0.0074712989     -0.0298221500      0.0168894969
 H     -0.0009056339      0.0124321662      0.0238392280
97
# ORCA AIMD Velocity Step 10000, t=2500.00 fs, E_Pot=-378970.59908444 kJ mol^-1, Unit is Angstrom fs^-1
Zn     -0.0024528845     -0.0007940279      0.0009518920
 O     -0.0009591117     -0.0064075484     -0.0010469058
 H     -0.0100970472     -0.0135232302      0.0156171880
 H      0.0026286230     -0.0029948195      0.0035712496
 O     -0.0046630021     -0.0083332963     -0.0039042806
 H      0.0146121633     -0.0034350821      0.0152594282
 H     -0.0055374418     -0.0257509301     -0.0057730944
 O     -0.0014678710      0.0058503203      0.0045582306
 H     -0.0023648996      0.0077836245     -0.0381044445
 H      0.0073546548     -0.0062624189      0.0137782102
 O      0.0027583804     -0.0034769177      0.0026397534
 H      0.0052213021     -0.0131930729     -0.0098532740
 H      0.0075444982      0.0022366685      0.0116627787
 O     -0.0035111580      0.0025480158     -0.0021491990
 H     -0.0234756423      0.0050293648     -0.0209928811
 H     -0.0015576772     -0.0139820847     -0.0117763291
 O      0.0037278414     -0.0041768505     -0.0081348998
 H      0.0226861692      0.0135343100     -0.0166097036
 H     -0.0006128267      0.0068039091     -0.0015516680
 O     -0.0071651430      0.0021941853      0.0026714191
 H      0.0094518186     -0.0122149473     -0.0001895972
 H     -0.0018729205      0.0222198114      0.0035162804
 O      0.0001818019      0.0023803490     -0.0067988885
 H      0.0172670693      0.0196277778     -0.0039896882
 H      0.0010563495     -0.0149660038     -0.0072412067
 O      0.0043563717      0.0035256836     -0.0028797933
 H      0.0183901704     -0.0335984794     -0.0078961530
 H     -0.0164890601      0.0205387819      0.0036932237
 O     -0.0001198662     -0.0028985168      0.0051189111
 H     -0.0112339302      0.0193427636      0.0185452530
 H      0.0180637573      0.0060369557     -0.0175642979
 O      0.0000129719     -0.0016410766      0.0016411933
 H      0.0059997495     -0.0103754228      0.0189383154
 H      0.0044273345      0.0053966209     -0.0152414444
 O      0.0002187766     -0.0010740507      0.0109733174
 H      0.0085172622      0.0318960653      0.0129940490
 H     -0.0044942035      0.0120282875      0.0136181040
 O      0.0049970769     -0.0047098943     -0.0011220938
 H     -0.0117664259      0.0048231906     -0.0081068184
 H      0.0045026429     -0.0016191439     -0.0041258929
 O      0.0064622207     -0.0029418648      0.0075545956
 H      0.0044528097      0.0079620393     -0.0130161824
 H      0.0057262450      0.0008710834      0.0084964520
 O      0.0003016345      0.0011788095      0.0059112127
 H     -0.0087106901     -0.0090807629     -0.0109632204
 H     -0.0144878457     -0.0062018399     -0.0008612485
 O     -0.0047874758     -0.0003022792      0.0088762516
 H      0.0143793987     -0.0172392209      0.0166243397
 H     -0.0029931275      0.0065669325     -0.0003036243
 O      0.0016172187      0.0051782624     -0.0013305562
 H     -0.0079680022     -0.0215796562      0.0118482719
 H      0.0146630219      0.0001771356      0.0215215450
 O     -0.0021867390     -0.0075854593     -0.0012290924
 H      0.0449405411     -0.0075644642     -0.0282897054
 H      0.0032496875     -0.0094793014     -0.0326403025
 O     -0.0096385131      0.0062007537     -0.0071031390
 H      0.0161718659      0.0166742036     -0.0269894429
 H      0.0017459266      0.0194775221      0.0066086978
 O     -0.0029089883      0.0064694715     -0.0035051049
 H      0.0088302790     -0.0313401458     -0.0083886798
 H     -0.0352946235      0.0142863070      0.0043324484
 N     -0.0040392406      0.0010832452     -0.0027652506
 C     -0.0069472585      0.0061929960      0.0039807253
 C     -0.0018799978     -0.0026982418      0.0016945145
 N     -0.0069749877     -0.0072107327     -0.0042035027
 H      0.0046221968     -0.0171984374     -0.0120196123
 H     -0.0134087905     -0.0040566041     -0.0089696350
 H      0.0100768058     -0.0112965551      0.0141852380
 H      0.0092241436      0.0001916027      0.0156236868
 H      0.0061019239     -0.0068003422     -0.0144935268
 H      0.0054204539      0.0006986055     -0.0004840264
 H      0.0006952793      0.0007516711     -0.0005442146
 H      0.0119866695      0.0062266111      0.0107071569
 N      0.0086672313     -0.0022842801     -0.0059357556
 C      0.0031154257     -0.0038970762     -0.0053605396
 C      0.0026656424     -0.0009605034      0.0001537526
 N     -0.0092064609      0.0021016318      0.0064799586
 H      0.0014657940     -0.0001141366     -0.0101187067
 H      0.0304854649      0.0018732718     -0.0136676467
 H     -0.0044795507     -0.0196305613     -0.0050215868
 H      0.0154530585      0.0065908076     -0.0040357467
 H     -0.0049029336     -0.0017988005     -0.0133075284
 H      0.0039379602     -0.0053266675      0.0134440656
 H     -0.0053279486     -0.0159873248      0.0082336754
 H     -0.0139704512     -0.0055951406      0.0098232120
 N      0.0014353731     -0.0057155522     -0.0036451025
 C      0.0015645443      0.0017019464      0.0063914685
 C     -0.0038807094     -0.0056701224      0.0035181153
 N     -0.0080391745     -0.0020071803      0.0007704546
 H      0.0001352188      0.0012246566     -0.0012106119
 H      0.0067540863      0.0046576934     -0.0135623249
 H      0.0083834056     -0.0019580504      0.0100771922
 H     -0.0186916052      0.0293020996      0.0069309301
 H      0.0001930777      0.0111767352      0.0036358650
 H     -0.0086302819      0.0007843159      0.0279313376
 H     -0.0013527015      0.0120453360     -0.0361545727
 H     -0.0075657333     -0.0086768004     -0.0083374407
97
# ORCA AIMD Velocity Step 12000, t=3000.00 fs, E_Pot=-378953.25726634 kJ mol^-1, Unit is Angstrom fs^-1
Zn      0.0055290048      0.0045263846      0.0001398361
 O      0.0018702306     -0.0050679033      0.0078631945
 H      0.0011279933     -0.0134470371      0.0020158698
 H      0.0114283195      0.0095952922      0.0042449621
 O      0.0143714584      0.0027348509     -0.0006009552
 H     -0.0199102491     -0.0219939828      0.0249753846
 H      0.0053202951      0.0060141756     -0.0066804976
 O      0.0002613732      0.0033053935     -0.0029389463
 H     -0.0120320894      0.0107946886     -0.0159252413
 H      0.0078508704      0.0009229974      0.0044158387
 O      0.0021267981     -0.0024725367     -0.0012476187
 H      0.0165586282     -0.0175344910     -0.0348161641
 H      0.0188975451     -0.0489070098     -0.0113601739
 O      0.0033786933      0.0007811757      0.0012520972
 H      0.0016078910      0.0130015190     -0.0187221210
 H      0.0320637439     -0.0207273206     -0.0016378091
 O     -0.0014626396      0.0000855276     -0.0029161964
 H     -0.0058210268     -0.0048478957     -0.0122517662
 H      0.0075735189     -0.0033940177     -0.0143259735
 O      0.0024118638     -0.0068454560      0.0017315147
 H      0.0068175603     -0.0026088333      0.0027351178
 H     -0.0020627254      0.0064405624     -0.0178080760
 O      0.0001667441     -0.0062507370      0.0039213005
 H     -0.0079244610      0.0104810544      0.0064997164
 H      0.0122806859     -0.0282321554      0.0092857520
 O      0.0046258696      0.0021459774      0.0024983286
 H     -0.0237674006      0.0103516634     -0.0098457942
 H     -0.0285061881      0.0200888153      0.0085097296
 O      0.0024732488     -0.0057469181      0.0034346365
 H      0.0431427368     -0.0248635271      0.0007553493
 H     -0.0002201020     -0.0159168005      0.0035855369
 O      0.0031831842     -0.0058122689      0.0074982356
 H      0.0272035389      0.0008035249     -0.0267541622
 H      0.0003250732      0.0158977864     -0.0047502154
 O     -0.0069189867      0.0027745921     -0.0029832124
 H      0.0179530900      0.0112249612     -0.0153609511
 H     -0.0131551851      0.0362170151      0.0321387842
 O      0.0011816658      0.0000946331     -0.0027783557
 H     -0.0103342101     -0.0230039237      0.0028965625
 H     -0.0091717461     -0.0089427363      0.0248556563
 O     -0.0038942208     -0.0068290389     -0.0010853577
 H      0.0141386565      0.0227664046      0.0029431760
 H     -0.0051150711     -0.0171173089     -0.0051845452
 O     -0.0004405610      0.0027962565     -0.0023499238
 H     -0.0229805958     -0.0139396079     -0.0140072867
 H     -0.0131830803     -0.0163567207     -0.0007896725
 O     -0.0066339366      0.0045321189     -0.0021181969
 H     -0.0006762637     -0.0102944194     -0.0054187311
 H     -0.0026676826     -0.0094399034      0.0174084682
 O      0.0012667986      0.0020625327     -0.0002857751
 H     -0.0039023091      0.0153999919      0.0017386050
 H     -0.0022586643     -0.0297734661      0.0063754967
 O     -0.0018229547      0.0057712713      0.0004548329
 H      0.0041450571      0.0115526590      0.0148906819
 H      0.0004879171      0.0237213215     -0.0021786477
 O      0.0007522881      0.0106111877     -0.0007120897
 H     -0.0189075429      0.0104275866      0.0049352214
 H     -0.0024161915      0.0170335034     -0.0249506218
 O     -0.0066811492      0.0021739455     -0.0050787167
 H     -0.0050796474      0.0091577524     -0.0020508521
 H     -0.0062575841      0.0181058310     -0.0000433390
 N     -0.0058346036     -0.0015902340      0.0067648162
 C     -0.0063384680     -0.0033508620      0.0031966678
 C      0.0054585813     -0.0016500041     -0.0007812517
 N      0.0000121960      0.0036973039     -0.0000829710
 H     -0.0110380054     -0.0186591699      0.0106535491
 H     -0.0032732650      0.0055734981      0.0066011660
 H     -0.0210448044      0.0038329239     -0.0081535110
 H     -0.0139843851     -0.0077482095     -0.0185943740
 H      0.0107650329      0.0066594030      0.0175087664
 H     -0.0077444496     -0.0109716819      0.0272847685
 H      0.0063702889      0.0128396302     -0.0039658510
 H      0.0120492760     -0.0172119250     -0.0078130464
 N     -0.0035932238     -0.0037029673     -0.0042178608
 C      0.0037143027      0.0039075915     -0.0048885926
 C      0.0025730495      0.0015298513     -0.0037350774
 N     -0.0057164927     -0.0103170816      0.0112157682
 H     -0.0045573965      0.0027377471     -0.0013640544
 H     -0.0086873551      0.0019729411     -0.0034938862
 H      0.0161188022     -0.0055485191     -0.0099962448
 H      0.0001115514     -0.0055911382      0.0013054548
 H      0.0049825928      0.0187004088     -0.0134676999
 H     -0.0118401981     -0.0058769319     -0.0028296233
 H     -0.0026705420     -0.0073106975      0.0157089781
 H     -0.0026679233      0.0025807087      0.0065488256
 N      0.0013841127      0.0094447732     -0.0005520730
 C      0.0088770301      0.0106191302      0.0036063297
 C     -0.0052279245     -0.0008616808     -0.0031079558
 N     -0.0038245936      0.0031140256     -0.0009652014
 H      0.0370780932      0.0153701189     -0.0004054093
 H      0.0051732427     -0.0104555902      0.0014791756
 H      0.0116986658      0.0187982577     -0.0095714353
 H     -0.0074195634      0.0157225535     -0.0005534620
 H     -0.0111315269     -0.0128059438      0.0043174522
 H     -0.0110603756      0.0075402323      0.0057803593
 H     -0.0024261795      0.0038963658      0.0040875806
 H     -0.0004145598      0.0151579595     -0.0086817361
97
# ORCA AIMD Velocity Step 14000, t=3500.00 fs, E_Pot=-378920.53629480 kJ mol^-1, Unit is Angstrom fs^-1
Zn      0.0001633126      0.0017162472      0.0043782819
 O     -0.0043021167      0.0078304283      0.0020099715
 H     -0.0107436033      0.0064559740     -0.0054824983
 H      0.0343629438      0.0153552191     -0.0340519527
 O     -0.0073796288      0.0012275206     -0.0014140108
 H     -0.0006463706     -0.0102904859     -0.0066459515
 H      0.0001075539      0.0019795937     -0.0086292207
 O     -0.0071121424      0.0092338344     -0.0074224928
 H     -0.0149643364      0.0070065505     -0.0077155235
 H      0.0185851471     -0.0205149901      0.0062760930
 O     -0.0016241652     -0.0004109772     -0.0069550485
 H      0.0218638596      0.0005539987     -0.0278245904
 H      0.0071748152     -0.0286672211      0.0129411453
 O     -0.0081867984     -0.0028154430      0.0031049182
 H      0.0271836472     -0.0009727601      0.0001839774
 H      0.0104407143     -0.0080531424      0.0133204606
 O     -0.0023319232     -0.0007109951     -0.0007103736
 H     -0.0123449238     -0.0305444141      0.0196729711
 H     -0.0507110494      0.0099385987      0.0076499013
 O      0.0019374324      0.0020803919     -0.0019741422
 H      0.0088345181      0.0050669316     -0.0059197287
 H      0.0092960106     -0.0110725824     -0.0005556914
 O      0.0036942475      0.0010038383     -0.0027794555
 H      0.0101508486      0.0036370769      0.0149407230
 H     -0.0105243297     -0.0127764289     -0.0143680018
 O      0.0087502201      0.0010570863     -0.0003428606
 H     -0.0241354871      0.0157565449      0.0494077576
 H      0.0239265656      0.0163859043      0.0044849549
 O      0.0088409389      0.0083567259      0.0028488167
 H      0.0153814722      0.0020423781     -0.0093526568
 H      0.0200153687      0.0167419857      0.0032941883
 O      0.0026281305      0.0050746308      0.0056781841
 H      0.0401394169     -0.0225387119     -0.0173611066
 H     -0.0218413443     -0.0137697637     -0.0105237326
 O     -0.0045702969     -0.0030355330     -0.0024874956
 H     -0.0228252779      0.0081457842     -0.0095997470
 H     -0.0173811207      0.0203177978      0.0134663931
 O     -0.0041239093      0.0072689144     -0.0040021135
 H     -0.0150345428     -0.0007810310      0.0159627855
 H      0.0209848343      0.0104199265     -0.0159995566
 O      0.0026170389      0.0007389024      0.0009958225
 H     -0.0025521176     -0.0047672015     -0.0012842805
 H     -0.0047336870     -0.0098082645     -0.0142056111
 O      0.0002223546     -0.0075816286      0.0041953821
 H      0.0095253433      0.0003741239      0.0199599996
 H      0.0041002314     -0.0160488117      0.0262820322
 O     -0.0010653099      0.0000796139      0.0071077424
 H      0.0113745249      0.0063102849      0.0032521447
 H      0.0151138196     -0.0028494143     -0.0040618463
 O     -0.0017874002      0.0004342614      0.0000760109
 H      0.0031981159      0.0258826208     -0.0011880948
 H     -0.0188589658     -0.0062006806     -0.0116788853
 O      0.0001971014      0.0011264633      0.0007840634
 H      0.0106411067     -0.0157414333     -0.0474824319
 H      0.0242622101      0.0213623263     -0.0021190511
 O      0.0058807142      0.0024888241      0.0023249178
 H      0.0527983987     -0.0325522761     -0.0191297779
 H      0.0208414773      0.0134171057      0.0058583092
 O      0.0105449388      0.0018704969     -0.0023657198
 H     -0.0117025755     -0.0080636580      0.0065104963
 H      0.0136391837      0.0075482723     -0.0186769371
 N      0.0006282759     -0.0057915462      0.0043490514
 C      0.0020163608     -0.0049506852     -0.0025607017
 C      0.0031673650      0.0033487288     -0.0003293468
 N      0.0035497820      0.0074927656      0.0034840188
 H      0.0124181250      0.0126805861      0.0026985815
 H     -0.0106026058      0.0163857266     -0.0087841035
 H      0.0233830318     -0.0043795939      0.0192810584
 H      0.0038386260      0.0108589082      0.0268914367
 H      0.0060118644     -0.0088999129     -0.0159866483
 H      0.0029534627      0.0060680520      0.0002298410
 H      0.0045640309     -0.0008967739     -0.0171220115
 H     -0.0012425914     -0.0021065458      0.0292872452
 N     -0.0037664668      0.0036301853      0.0025914924
 C      0.0004123505      0.0028713775      0.0003314216
 C      0.0015823411     -0.0029906859     -0.0014543493
 N     -0.0011651493      0.0058010164     -0.0015541174
 H     -0.0116510403      0.0289161077     -0.0102049575
 H      0.0001935309      0.0093760645      0.0140554673
 H     -0.0032229256     -0.0154081055     -0.0080252049
 H     -0.0229461464      0.0190717778      0.0156379917
 H      0.0062873874     -0.0057256553      0.0023914016
 H      0.0064267608      0.0217059155      0.0086766686
 H     -0.0003289637      0.0136532787      0.0009552778
 H      0.0043720927     -0.0027091933      0.0399405677
 N      0.0025188971      0.0051954888     -0.0007525381
 C      0.0010461305      0.0002464294     -0.0000036576
 C     -0.0015393094     -0.0020867042     -0.0065797974
 N      0.0097725991     -0.0039244855      0.0014437183
 H      0.0055292217     -0.0091305288     -0.0384167218
 H     -0.0048913825     -0.0023658601      0.0157078248
 H      0.0094489374      0.0069043168     -0.0146185935
 H     -0.0134393985      0.0211101974      0.0027507910
 H     -0.0177592658     -0.0144754865     -0.0240792783
 H      0.0028642119      0.0103994138      0.0013266674
 H      0.0047613427      0.0163345896      0.0010822258
 H      0.0172261858      0.0003037190      0.0015373624
97
# ORCA AIMD Velocity Step 16000, t=4000.00 fs, E_Pot=-378970.94512007 kJ mol^-1, Unit is Angstrom fs^-1
Zn     -0.0052583778     -0.0002326037      0.0010426507
 O      0.0078357872      0.0062117801     -0.0041327150
 H      0.0138604490      0.0095652532      0.0224047406
 H      0.0102982217      0.0040231180      0.0021303694
 O     -0.0021229911     -0.0095162853     -0.0000586577
 H      0.0108457482      0.0117001111     -0.0020514185
 H     -0.0152554806     -0.0134734799     -0.0118129445
 O      0.0057323547      0.0018529418     -0.0012748360
 H      0.0231335018     -0.0349400844      0.0152695506
 H      0.0205904887      0.0469413628     -0.0254311523
 O     -0.0023203654     -0.0016290962     -0.0032596442
 H      0.0090082355     -0.0419867493     -0.0183215162
 H      0.0063733882      0.0286720147     -0.0158389286
 O     -0.0009031992     -0.0021814503      0.0000693637
 H      0.0167515090     -0.0133175109      0.0048088100
 H     -0.0133177782      0.0070418558     -0.0056140110
 O     -0.0027865134     -0.0025420127     -0.0042802987
 H     -0.0017359968     -0.0332151613     -0.0112217199
 H     -0.0081131004     -0.0139214703     -0.0046076801
 O     -0.0025035701     -0.0009557791      0.0030947693
 H     -0.0068735696     -0.0212852451     -0.0076397591
 H      0.0109531962     -0.0039294360     -0.0040354953
 O     -0.0015376176     -0.0013228474      0.0018811794
 H      0.0019039535     -0.0017322848      0.0181393425
 H     -0.0093387903     -0.0132691215      0.0232479382
 O      0.0014536045      0.0017455533      0.0006149130
 H      0.0061280117     -0.0131899403     -0.0014280732
 H     -0.0066544140     -0.0011523967      0.0063867130
 O     -0.0122581955      0.0016185096      0.0053739361
 H      0.0128605738      0.0069781295     -0.0337338642
 H     -0.0210989212      0.0218137126      0.0007594118
 O      0.0044048829     -0.0036469193     -0.0035359047
 H      0.0031597357      0.0120437133      0.0201877755
 H      0.0005273531     -0.0025058207      0.0327942207
 O      0.0053944484     -0.0004893355     -0.0100295474
 H     -0.0113179136     -0.0315698338     -0.0125722600
 H     -0.0302780119     -0.0300806267      0.0141866137
 O     -0.0006293624      0.0000554747     -0.0058627643
 H      0.0262750768     -0.0221176204     -0.0266948366
 H      0.0090680546     -0.0066156270      0.0043834069
 O      0.0087116879     -0.0092468806      0.0051797478
 H      0.0086334465     -0.0045484410      0.0047787959
 H      0.0230139720      0.0116393825     -0.0059534541
 O      0.0012299347     -0.0008993819      0.0017406742
 H     -0.0182131945     -0.0036354587     -0.0054434529
 H     -0.0249499569      0.0018287813     -0.0118227857
 O      0.0052629226      0.0023144303      0.0008889916
 H      0.0200498605      0.0204061065     -0.0179954971
 H     -0.0110068512      0.0190297882     -0.0146281646
 O     -0.0018709517     -0.0041309565     -0.0063166401
 H     -0.0100631266     -0.0047641252      0.0225229113
 H     -0.0104062465      0.0286381240     -0.0178085147
 O     -0.0023104370     -0.0020045803     -0.0016620904
 H     -0.0234513966     -0.0266188788     -0.0059682839
 H     -0.0159811816     -0.0185354688      0.0021425199
 O     -0.0035275211     -0.0039265751      0.0014951607
 H     -0.0256169602     -0.0187811015      0.0025343330
 H      0.0078317752     -0.0019699466     -0.0138286283
 O     -0.0064958225      0.0090988388     -0.0021676883
 H     -0.0161305606     -0.0365729583      0.0203874605
 H     -0.0039408247      0.0089883301      0.0013589287
 N      0.0045782492     -0.0080564462      0.0092472992
 C      0.0021600649      0.0000965007     -0.0010376186
 C      0.0073602850     -0.0038480859     -0.0062016112
 N      0.0000529266      0.0069085533     -0.0027995843
 H      0.0014797146     -0.0057032591     -0.0210460275
 H     -0.0036546885      0.0045300278      0.0051812676
 H     -0.0079211595     -0.0217658355     -0.0089272554
 H      0.0159545881      0.0014089021     -0.0027110310
 H     -0.0007483175      0.0018633865     -0.0114991788
 H      0.0370251222      0.0019515645      0.0041031540
 H     -0.0114065804      0.0149335903     -0.0179409739
 H      0.0047102124     -0.0091326199      0.0194107390
 N     -0.0012510612      0.0033509712      0.0090667439
 C      0.0004634616      0.0060021570      0.0019870980
 C      0.0020907577      0.0031948764      0.0087261941
 N      0.0033669989     -0.0020943785      0.0000454507
 H      0.0022203598      0.0074077930     -0.0089403755
 H     -0.0022813300      0.0112931637     -0.0004171229
 H      0.0072816647      0.0005511258     -0.0128974223
 H      0.0020622747     -0.0013471199      0.0102642084
 H      0.0064478215      0.0055303547      0.0129763835
 H     -0.0111076232     -0.0032932927     -0.0002394459
 H      0.0001850188     -0.0050358022      0.0287037809
 H     -0.0036707051     -0.0112819409      0.0181554110
 N     -0.0058731017      0.0020253326      0.0068281848
 C     -0.0039585389      0.0029466436     -0.0021204877
 C      0.0029292922     -0.0035195578     -0.0051544893
 N     -0.0060884244     -0.0053184041     -0.0002291404
 H      0.0046955732     -0.0121870449      0.0179968695
 H      0.0200860224     -0.0026838126      0.0082294116
 H      0.0037727487      0.0130125182     -0.0043901656
 H     -0.0067524664     -0.0075483140     -0.0095646960
 H     -0.0026852451     -0.0108158027      0.0083048213
 H      0.0106893722     -0.0028610568      0.0040906728
 H      0.0000044152      0.0115085684     -0.0163928327
 H     -0.0086705613     -0.0073924006     -0.0256381653
97
# ORCA AIMD Velocity Step 18000, t=4500.00 fs, E_Pot=-378833.55628918 kJ mol^-1, Unit is Angstrom fs^-1
Zn     -0.0056827126     -0.0002806802     -0.0016989943
 O     -0.0094374946     -0.0015118252      0.0019688339
 H      0.0325192040     -0.0029331213     -0.0117840946
 H     -0.0166750859      0.0002450991      0.0066720474
 O     -0.0018138449      0.0044075348      0.0045669551
 H      0.0326158294      0.0242651050     -0.0001031398
 H     -0.0020687617      0.0139215898     -0.0237946739
 O      0.0009471143     -0.0021547908     -0.0037068873
 H      0.0037028127      0.0012753531     -0.0060516508
 H      0.0000737686      0.0109920142      0.0066804088
 O      0.0022887974     -0.0057561646     -0.0010321336
 H     -0.0135804497     -0.0001847174     -0.0226395010
 H     -0.0216795319     -0.0086837651      0.0014149755
 O      0.0087242784     -0.0063884495     -0.0010966338
 H      0.0167798635     -0.0070081718     -0.0081265997
 H     -0.0064241467     -0.0250745021     -0.0091090558
 O      0.0023471674      0.0033553006      0.0036135559
 H     -0.0024158976      0.0330180786     -0.0110626867
 H     -0.0193991798      0.0171352899     -0.0039271655
 O     -0.0047185891      0.0057191778     -0.0075524255
 H      0.0078874762      0.0072709898      0.0042353731
 H     -0.0255766767      0.0045345856      0.0132250448
 O     -0.0012034492     -0.0053885068     -0.0042120199
 H      0.0047341508     -0.0325822947     -0.0155328528
 H     -0.0030179918      0.0140321401     -0.0089320943
 O     -0.0030855198     -0.0058391740      0.0005690566
 H     -0.0168943488     -0.0113576093     -0.0125906862
 H     -0.0083561721      0.0066872290      0.0023009562
 O     -0.0014665195     -0.0084972512     -0.0055852645
 H     -0.0093246681     -0.0213224504     -0.0191833652
 H     -0.0108892656     -0.0289854200      0.0001689579
 O     -0.0028599469     -0.0008364372     -0.0032515799
 H     -0.0072018643     -0.0072088631      0.0104847190
 H     -0.0014706902     -0.0035558400      0.0006991831
 O     -0.0018150445     -0.0090425076     -0.0059344034
 H      0.0314389234     -0.0264737720      0.0175378607
 H      0.0086009235      0.0052293956     -0.0044624548
 O      0.0006371620     -0.0044329268     -0.0013290125
 H      0.0162915222     -0.0074877978      0.0117456988
 H      0.0058789076      0.0023807818     -0.0056065642
 O      0.0030586577      0.0004355655      0.0001392073
 H     -0.0006990506      0.0046570470     -0.0034918919
 H     -0.0091827892     -0.0064504647      0.0037433633
 O      0.0037785192     -0.0027358605     -0.0066953339
 H      0.0201715239      0.0108284035      0.0025528077
 H     -0.0045321000      0.0189959150      0.0206320645
 O     -0.0076461923     -0.0019425827      0.0018133375
 H      0.0156782137     -0.0256987724     -0.0036175118
 H      0.0058657627      0.0172588575      0.0045999315
 O     -0.0038197028      0.0021284792     -0.0003053800
 H      0.0095388145      0.0073374499      0.0114188037
 H      0.0007037939      0.0128406738     -0.0110600505
 O      0.0050378175      0.0073923353      0.0052817320
 H      0.0233597777     -0.0020332645     -0.0031600409
 H     -0.0099075698     -0.0028707737      0.0053224957
 O      0.0051132417     -0.0044968022      0.0001754941
 H     -0.0048528302      0.0080422911     -0.0195889891
 H     -0.0067808982     -0.0116098227      0.0113321092
 O     -0.0033301575     -0.0051868452      0.0037853027
 H      0.0085843673     -0.0263902612      0.0074462447
 H      0.0388193048     -0.0078399424     -0.0096880066
 N      0.0066002587      0.0045167908     -0.0043795035
 C      0.0022427719      0.0017355045      0.0028263842
 C     -0.0011390485     -0.0003570496      0.0038305253
 N      0.0112398960      0.0038736990      0.0003016085
 H     -0.0123534031      0.0036519463     -0.0356936455
 H      0.0106543143     -0.0255549064     -0.0069573803
 H     -0.0007891321     -0.0035590527     -0.0051737478
 H      0.0097838264     -0.0026542072      0.0210077037
 H      0.0095429681     -0.0272847963     -0.0176316428
 H      0.0246158024      0.0183757317     -0.0011413638
 H     -0.0119325617      0.0261281822     -0.0186922950
 H      0.0090312482     -0.0100301236     -0.0056277863
 N      0.0014042964      0.0022916978      0.0087331728
 C     -0.0005265999      0.0052167213      0.0048189293
 C      0.0036701076     -0.0052246466     -0.0016345343
 N     -0.0047535522     -0.0030478327     -0.0021768983
 H     -0.0034164946      0.0077394363      0.0086152430
 H      0.0053977982      0.0131634847     -0.0004203769
 H     -0.0105885846      0.0020684493     -0.0160565249
 H     -0.0257498687     -0.0082335623      0.0127034578
 H     -0.0012864989      0.0115485091     -0.0105302696
 H      0.0052567532      0.0132518356      0.0090163687
 H      0.0285581798     -0.0010369267      0.0007368385
 H      0.0139892329      0.0034598718      0.0156709722
 N     -0.0041502187     -0.0051877998      0.0045761628
 C     -0.0072300724     -0.0061744069     -0.0049684008
 C      0.0089673526     -0.0076820049      0.0040290550
 N      0.0055982994     -0.0048344311      0.0083622651
 H     -0.0021783684     -0.0113458651     -0.0105927180
 H      0.0040416268     -0.0142677261     -0.0036730390
 H     -0.0046332722      0.0117469605     -0.0104737356
 H      0.0003551336     -0.0086778571     -0.0314910866
 H     -0.0088051149     -0.0230960476     -0.0047656455
 H     -0.0170392893     -0.0111491545     -0.0222077994
 H      0.0066037172      0.0095189954      0.0053894298
 H     -0.0214097641     -0.0015914070     -0.0105877666
97
# ORCA AIMD Velocity Step 20000, t=5000.00 fs, E_Pot=-378935.49323728 kJ mol^-1, Unit is Angstrom fs^-1
Zn      0.0029965574      0.0026861101     -0.0005431648
 O     -0.0019674928      0.0094791355      0.0022121368
 H     -0.0000528577     -0.0162225818     -0.0020822190
 H      0.0102893982      0.0184350199     -0.0072224063
 O     -0.0073349950     -0.0016763971      0.0064486287
 H     -0.0184416758      0.0211892154      0.0154241044
 H     -0.0005289322     -0.0024337801      0.0151908338
 O      0.0032531819     -0.0063453999     -0.0053255423
 H     -0.0177842570      0.0014358654     -0.0008126283
 H     -0.0167982792     -0.0209784675     -0.0206279428
 O     -0.0102937439      0.0010753013      0.0021660303
 H      0.0124833647      0.0067480410      0.0159767782
 H      0.0092313664     -0.0156193648     -0.0004923683
 O      0.0061070848      0.0003669712     -0.0040501374
 H     -0.0157617570      0.0046320396      0.0003087480
 H      0.0018723190      0.0102753140     -0.0069419339
 O     -0.0008235181     -0.0002956962      0.0001305731
 H     -0.0184707467      0.0034944515      0.0095471443
 H      0.0269401298      0.0239672772     -0.0118170272
 O     -0.0009591293      0.0028022157      0.0008216159
 H     -0.0127806788     -0.0143744552     -0.0363539490
 H      0.0184717230      0.0096764317     -0.0043056166
 O      0.0079034348      0.0059699545     -0.0048593849
 H     -0.0024190032      0.0154002230      0.0038190406
 H      0.0055821846      0.0002399697      0.0059566127
 O     -0.0002635942     -0.0037629149     -0.0046121252
 H     -0.0256113519      0.0003995548      0.0066412956
 H     -0.0386782719     -0.0151560241     -0.0175293320
 O     -0.0000976170      0.0028407595      0.0027691072
 H      0.0023934716     -0.0002587749     -0.0145681414
 H     -0.0154213373      0.0195548533      0.0248486723
 O      0.0069768108     -0.0045492659     -0.0078625894
 H     -0.0001419258      0.0089441365     -0.0130063882
 H      0.0084993676      0.0174429213     -0.0158703393
 O      0.0026738642      0.0096864965     -0.0013760134
 H      0.0234390027     -0.0147684412     -0.0035539698
 H     -0.0026218043      0.0251250701      0.0275845633
 O      0.0013589542     -0.0022234147     -0.0024110786
 H      0.0216251053      0.0125308764      0.0055228697
 H      0.0156623377      0.0056770759      0.0151440400
 O      0.0048884890     -0.0003491334     -0.0002080741
 H      0.0073015935     -0.0080425197     -0.0084751070
 H     -0.0060591592      0.0135822655     -0.0182734940
 O      0.0036045777      0.0044258862     -0.0016553140
 H      0.0149294760     -0.0127723853      0.0123519101
 H      0.0035094687     -0.0032851440      0.0328331132
 O     -0.0003283384      0.0010949611      0.0059775738
 H     -0.0068136736      0.0236963876     -0.0076065876
 H     -0.0350553489      0.0279165043     -0.0018689494
 O      0.0031175285     -0.0009475869      0.0054957184
 H      0.0110837185     -0.0140164790      0.0175596267
 H     -0.0098774951      0.0205414134      0.0140920304
 O      0.0002699188      0.0022270953      0.0008625498
 H      0.0077918525      0.0603546950      0.0199042905
 H      0.0019833397      0.0033230347      0.0017619516
 O     -0.0078399280     -0.0003868580      0.0030998967
 H     -0.0112199598     -0.0026918936      0.0080497871
 H     -0.0076336530     -0.0048225326      0.0096348066
 O      0.0064000958      0.0054122451      0.0041132102
 H     -0.0249786021      0.0090240889      0.0023282865
 H      0.0106107982      0.0067106942      0.0024784096
 N     -0.0015243137     -0.0067445500      0.0051860141
 C      0.0037242334      0.0011930625      0.0013602056
 C     -0.0087224051      0.0034037757     -0.0054663618
 N      0.0027552932      0.0001833136      0.0084087994
 H     -0.0337315207     -0.0208205538     -0.0043859965
 H      0.0062916705      0.0076639123     -0.0079326968
 H     -0.0119120842      0.0013131761     -0.0197744757
 H      0.0253108957     -0.0288771708      0.0094313290
 H     -0.0218647914     -0.0255541993     -0.0017357360
 H     -0.0213509963     -0.0007987095     -0.0152219407
 H      0.0095880052      0.0209451011      0.0113482801
 H      0.0031223301     -0.0109339337      0.0080826340
 N     -0.0030270716     -0.0016514565     -0.0014698380
 C      0.0079140941      0.0021142631      0.0033217955
 C     -0.0036174771     -0.0016484522     -0.0013621741
 N     -0.0056925724     -0.0033080719      0.0018171347
 H     -0.0062795234      0.0033924417      0.0039070021
 H     -0.0051843631     -0.0013341505      0.0054127994
 H      0.0310759344      0.0086306186      0.0174056689
 H     -0.0060071184      0.0002550020      0.0138261721
 H     -0.0063984419      0.0002261305      0.0114429495
 H      0.0090719932     -0.0099713571      0.0041719687
 H     -0.0005782446     -0.0142584127     -0.0062636947
 H      0.0082196438      0.0122140337     -0.0101638621
 N      0.0056173103      0.0071451131      0.0009087004
 C      0.0053854736      0.0038628032      0.0010819515
 C      0.0092827739     -0.0039191685      0.0053226571
 N     -0.0003673378      0.0056334734     -0.0004885609
 H      0.0165474643     -0.0009803939     -0.0038872405
 H      0.0213333708      0.0255592458      0.0039654073
 H     -0.0001408273     -0.0115268042     -0.0054838731
 H      0.0167810603     -0.0033564074      0.0101205458
 H      0.0026432418      0.0132965811      0.0000652320
 H      0.0057983790      0.0088106503     -0.0171660901
 H     -0.0090845378      0.0318778613      0.0013099966
 H     -0.0093262276     -0.0009547443     -0.0278724711
