43
Coordinates from ORCA-job relaxar_solvato E -65.160719620950
  Zn         -0.21353095747881     -0.03719729531735      0.03833350754988
  N          -0.06407169598460     -0.68113878029233      1.96936173748849
  C          -0.82732109189591     -1.92590718629514      2.04548257758940
  C          -2.11970095315682     -1.72834026797137      1.25736207389220
  N          -1.77217162547412     -1.33746566335199     -0.11067964178759
  H           0.89243461941332     -0.81774893822866      2.28818382444081
  H          -0.47912679533498     -0.00190041696618      2.59961235540168
  H          -0.24435914592513     -2.72009734434353      1.57808696729463
  H          -1.05732275191397     -2.21898148987857      3.07478692702244
  H          -2.69021280353604     -0.91836984581914      1.71352255048568
  H          -2.72168644416425     -2.64161634974956      1.29012122847244
  H          -1.48677053123541     -2.16765562334880     -0.62069452224757
  H          -2.60502204561563     -0.98270567545796     -0.58375391511146
  O          -0.22593987262554      0.52459021675293     -1.89011457934252
  H          -1.00370186511116      0.59999260264581     -2.48944115085261
  H           0.39920552967881      1.22657602273987     -2.14547616522277
  O           1.33970711891990      1.25422777969913      0.33343189150039
  H           1.80193085064157      1.64521310750901     -0.42476750880030
  H           2.01282374455583      0.92758947798514      0.96028945323653
  O           1.14421576723284     -1.52171105976317     -0.58793905108421
  H           1.21395000470342     -1.59353131621876     -1.54615902486903
  H           2.05400698848503     -1.59670504223669     -0.24537258236039
  O          -1.45745336954074      1.51729745852834      0.58962421130217
  H          -2.23486754542400      1.80481430361691      0.07244012793376
  H          -0.98970516208788      2.32083818424728      0.83971189592386
  O           3.77691411485389     -1.99456967821126      0.24264404871509
  H           3.88281349580922     -2.92314899564997      0.46874904607956
  H           4.49528734034202     -1.75915997703359     -0.35283917743146
  O          -2.38111245490354      0.52823603012143     -3.48088212798825
  H          -3.04899057062100      0.19783187278702     -2.84966454280632
  H          -2.34942778448262     -0.09951356163771     -4.20589902022256
  O          -3.71449362302458      2.46460260961109     -0.68424123384540
  H          -4.30363572949867      2.98344864707816     -0.12946160193014
  H          -3.53106287371325      2.97735926099400     -1.47814899409261
  O           2.87406213771944     -0.13847613172023      2.12733875537047
  H           3.30037641858144     -0.79769825148669      1.55296828519829
  H           3.51609765670844      0.12969926649777      2.78711949495847
  O          -4.10385401240777     -0.16869121309905     -1.44047893935332
  H          -5.02810069150662     -0.42566906462562     -1.45587698934412
  H          -4.06115221864778      0.74438059310957     -1.09726955700658
  O           1.83950052836307      2.36203346250194     -2.25101164861096
  H           1.62683966600208      3.29273795424642     -2.36060956240286
  H           2.50607105640439      2.14161864776904     -2.90716404271648
