
                                 *****************
                                 * O   R   C   A *
                                 *****************

                                            #,                                       
                                            ###                                      
                                            ####                                     
                                            #####                                    
                                            ######                                   
                                           ########,                                 
                                     ,,################,,,,,                         
                               ,,#################################,,                 
                          ,,##########################################,,             
                       ,#########################################, ''#####,          
                    ,#############################################,,   '####,        
                  ,##################################################,,,,####,       
                ,###########''''           ''''###############################       
              ,#####''   ,,,,##########,,,,          '''####'''          '####       
            ,##' ,,,,###########################,,,                        '##       
           ' ,,###''''                  '''############,,,                           
         ,,##''                                '''############,,,,        ,,,,,,###''
      ,#''                                            '''#######################'''  
     '                                                          ''''####''''         
             ,#######,   #######,   ,#######,      ##                                
            ,#'     '#,  ##    ##  ,#'     '#,    #''#        ,####,    ,#,          
            ##       ##  ##   ,#'  ##            #'  '#       #'       ,# #          
            ##       ##  #######   ##           ,######,      #####,      #          
            '#,     ,#'  ##    ##  '#,     ,#' ,#      #,     #,   #      #          
             '#######'   ##     ##  '#######'  #'      '#     '####' #    #          



                #########################################################
                #                        -***-                          #
                #          Department of theory and spectroscopy        #
                #                                                       #
                #                      Frank Neese                      #
                #                                                       #
                #     Directorship, Architecture, Infrastructure        #
                #                    SHARK, DRIVERS                     #
                #        Core code/Algorithms in most modules           #
                #                                                       #
                #        Max Planck Institute fuer Kohlenforschung      #
                #                Kaiser Wilhelm Platz 1                 #
                #                 D-45470 Muelheim/Ruhr                 #
                #                      Germany                          #
                #                                                       #
                #                  All rights reserved                  #
                #                        -***-                          #
                #########################################################


                         Program Version 6.1.1  -  RELEASE   -
                                (GIT: $487d211c$)
                          ($2025-11-21 10:33:24 +0100$)


 With contributions from (in alphabetic order):
[Max-Planck-Institut fuer Kohlenforschung]                               
  Daniel Aravena         : Magnetic Suceptibility                        
  Michael Atanasov       : Ab Initio Ligand Field Theory (pilot matlab implementation)
  Alexander A. Auer      : GIAO ZORA, VPT2 properties, NMR spectrum      
  Ute Becker             : All parallelization in ORCA, NUMFREQ, NUMCALC 
  Giovanni Bistoni       : ED, misc. LED, open-shell LED, HFLD           
  Dmytro Bykov           : pre 5.0 version of the SCF Hessian            
  Marcos Casanova-Páez   : Triplet and SCS-CIS(D). UHF-(DLPNO)-IP/EA/STEOM-CCSD. UHF-CVS-IP/STEOM-CCSD   
  Vijay G. Chilkuri      : MRCI spin determinant printing, contributions to CSF-ICE 
  Pauline Colinet        : FMM embedding                                 
  Dipayan Datta          : RHF DLPNO-CCSD density                        
  Achintya Kumar Dutta   : EOM-CC, STEOM-CC                              
  Nicolas Foglia         : Exact transition moments, OPA infrastructure, MCD improvements    
  Dmitry Ganyushin       : Spin-Orbit,Spin-Spin,Magnetic field MRCI      
  Miquel Garcia-Rates    : C-PCM and meta-GGA Hessian, CCSD/C-PCM, Gaussian charge scheme 
  Tiago L. C. Gouveia    : GS-ROHF, GS-ROCIS                             
  Yang Guo               : DLPNO-NEVPT2, F12-NEVPT2, CIM, IAO-localization        
  Andreas Hansen         : Spin unrestricted coupled pair/coupled cluster methods 
  Ingolf Harden          : AUTO-CI MPn and infrastructure                
  Benjamin Helmich-Paris : MC-RPA, TRAH-(SCF,CASSCF), AVAS, COSX integrals, SCF dyn. polar., MC-PDFT, srDFT 
  Lee Huntington         : MR-EOM, pCC                                   
  Robert Izsak           : Overlap fitted RIJCOSX, COSX-SCS-MP3, EOM     
  Riya Kayal             : Wick's Theorem for AUTO-CI, AUTO-CI UHF-CCSDT 
  Emily Kempfer          : AUTO-CI RHF CISDT and CCSDT, approximate NEVPT4
  Christian Kollmar      : KDIIS, OOCD, Brueckner-CCSD(T), CCSD density, CASPT2, CASPT2-K, improved NEVPT2 
  Axel Koslowski         : Symmetry handling                             
  Simone Kossmann        : meta-GGA functionals, TD-DFT gradient, OOMP2, (MP2 Hessian; deprecated post 5.0) 
  Lucas Lang             : DCDCAS, Hyperfine gauge corrections, ICE-SOC+SSC
  Marvin Lechner         : AUTO-CI (C++ implementation), FIC-MRCC        
  Spencer Leger          : CASSCF response                               
  Dagmar Lenk            : GEPOL surface, SMD, ORCA-2-JSON               
  Dimitrios Liakos       : Extrapolation schemes; Compound Job, Property file
  Dimitrios Manganas     : Further ROCIS development; embedding schemes. LFT, Crystal Embedding 
  Dimitrios Pantazis     : SARC Basis sets                               
  Anastasios Papadopoulos: AUTO-CI, single reference methods and gradients 
  Taras Petrenko         : pre 6.0 DFT Hessian and TD-DFT gradient,  ECA, NRVS 
  Petra Pikulova         : Analytic Raman intensities                    
  Peter Pinski           : DLPNO-MP2, DLPNO-MP2 Gradient                 
  Shashank Vittal Rao    : ES-AILFT, MagRelax                            
  Christoph Reimann      : Effective Core Potentials                     
  Marius Retegan         : Local ZFS, SOC                                
  Christoph Riplinger    : Optimizer, TS searches, QM/MM, DLPNO-CCSD(T), (RO)-DLPNO pert. Triples 
  Michael Roemelt        : Original ROCIS implementation, recursive CI coupling coefficients
  Masaaki Saitow         : Open-shell DLPNO-CCSD energy and density      
  Barbara Sandhoefer     : DKH picture change effects                    
  Yorick L. A. Schmerwitz: GMF and freeze-and-release deltaSCF, NEB S-IDPP initial path                    
  Kantharuban Sivalingam : CASSCF convergence/infrastructure, NEVPT2, NEVPT3, NEVPT4(SD), FIC-MRCI and CEPA variants
  Bernardo de Souza      : ESD, SOC TD-DFT                               
  Georgi L. Stoychev     : AutoAux, RI-MP2 NMR, DLPNO-MP2 response, X2C  
  Van Anh Tran           : RI-MP2 g-tensors                              
  Willem Van den Heuvel  : Paramagnetic NMR                              
  Zikuan Wang            : NOTCH, Electric field optimization            
  Frank Wennmohs         : Technical directorship and infrastructure     
  Hang Xu                : AUTO-CI-Response properties                   
                                                                         
[FACCTs GmbH]                                                            
  Markus Bursch, Nicolas Foglia, Miquel Garcia-Rates, Ingolf Harden, Hagen Neugebauer, Anastasios Papadopoulos, 
  Christoph Riplinger, Bernardo de Souza, Georgi L. Stoychev                                                    
                                                                 
  APM, various basis sets, CI-OPT, improved COSX, DLPNO-Multilevel,           
  DOCKER, DRACO, updates on ESD, Fragmentator, GOAT, IRC, LR-CPCM, L-BFGS, MBIS, meta-GGA TD-DFT gradient, ML-optimized integration grids, 
  MM, NACMEs, nearIR, NEB, NEB-TS, NL-DFT gradient (VV10), 2- and 3-layer-ONIOM, interface openCOSMO-RS, QMMM,   
  Crystal-QMMM, RESP, rigid body optimization, SF, symmetry and pop. for TD-DFT, various functionals, SOLVATOR                                   
                                                                         
[Other institutions]                                                     
  V. Asgeirsson          : NEB                                           
  Christoph Bannwarth    : sTDA-DFT, sTD-DFT, PBEh-3c, B97-3c, D3        
  Giovanni Bistoni       : ETS/NOCV, ADLD/ADEX, COVALED                  
  Martin Brehm           : Molecular dynamics                            
  Ronald Cardenas        : ETS/NOCV                                      
  Martina Colucci        : COVALED                                       
  Sebastian Ehlert       : rSCAN, r2SCAN, r2SCAN-3c, D4, dhf basis sets  
  Marvin Friede          : D4 for Fr, Ra, Ac-Lr                          
  Lars Goerigk           : TD-DFT with DH, B97 family of functionals     
  Stefan Grimme          : VdW corrections, initial TS optimization, DFT functionals, gCP, sTDA/sTD-DF 
  Waldemar Hujo          : DFT-NL                                        
  H. Jonsson             : NEB                                           
  Holger Kruse           : gCP                                           
  Marcel Mueller         : wB97X-3c, vDZP basis set                      
  Hagen Neugebauer       : wr2SCAN, Native XTB                           
  Gianluca Regni         : ADLD/ADEX                                     
  Tobias Risthaus        : pre 6.0 range-separated hybrid DFT and stability analysis
  Lukas Wittmann         : regularized MP2, r2SCAN double-hybrids, wr2SCAN        
                                                                         
We gratefully acknowledge several colleagues who have allowed us to      
interface, adapt or use parts of their codes:                            
  Ed Valeev, F. Pavosevic, A. Kumar             : LibInt (2-el integral package), F12 methods 
  Garnet Chan, S. Sharma, J. Yang, R. Olivares  : DMRG                   
  Ulf Ekstrom                                   : XCFun DFT Library      
  Mihaly Kallay                                 : mrcc  (arbitrary order and MRCC methods)
  Frank Weinhold                                : gennbo (NPA and NBO analysis)           
  Simon Mueller                                 : openCOSMO-RS                            
  Christopher J. Cramer and Donald G. Truhlar   : smd solvation model                     
  S Lehtola, MJT Oliveira, MAL Marques          : LibXC Library                           
  Liviu Ungur et al                             : ANISO software                          


 Your calculation uses the libint2 library for the computation of 2-el integrals
 For citations please refer to: http://libint.valeyev.net

 Your ORCA version has been built with support for libXC version: 7.0.0
 For citations please refer to: https://libxc.gitlab.io

 This ORCA versions uses:
   CBLAS   interface :  Fast vector & matrix operations
   LAPACKE interface :  Fast linear algebra routines
   SCALAPACK package :  Parallel linear algebra routines
   Shared memory     :  Shared parallel matrices
   BLAS/LAPACK       :  OpenBLAS 0.3.29  USE64BITINT DYNAMIC_ARCH NO_AFFINITY Haswell SINGLE_THREADED
        Core in use  :  Haswell
   Copyright (c) 2011-2014, The OpenBLAS Project


  ***********************************
  * Starting time: Wed Sep 30 19:19:34 2026
  * Host name:     NotebookAW
  * Process ID:    19355
  * Working dir.:  /home/henrique/aimd-workshop/exercicios-pal8-20260928/al_agua_nh3_dt05_al23
  ***********************************

NOTE: MaxCore=256 MB was set to SCF,MP2,MDCI,CIPSI,MRCI,RASCI and CIS
      => If you want to overwrite this, your respective input block should be placed after the MaxCore statement


***************************************
The coordinates will be read from file: al_agua_nh3.xyz
***************************************


Your calculation utilizes the semiempirical GFN2-xTB method
Please cite in your paper:
Bannwarth, C.; Ehlert S.; Grimme, S. J. Chem. Theory Comput. 2019, 15, 1652.
   

================================================================================

================================================================================
                                        WARNINGS
                       Please study these warnings very carefully!
================================================================================


WARNING: Gradients are needed
  ===> : At least TightSCF should be used for SCF convergence

WARNING: Found dipole moment calculation with XTB calculation
  ===> : Switching off dipole moment calculation


================================================================================
                                       INPUT FILE
================================================================================
NAME = al_agua_nh3_dt05.inp
|  1> # Caso fornecido: Al3+ + 6 aguas + NH3, agora com XTB2.
|  2> ! MD XTB2 PAL8
|  3> %maxcore 256
|  4> # Reduz a mistura SCC para esta geometria ionica; requer scc.inp.
|  5> %xtb
|  6>   XTBINPUTSTRING "--input scc.inp"
|  7> end
|  8> %md
|  9>   # Semente fixa para reproduzir as velocidades iniciais.
| 10>   Randomize 42
| 11>   Initvel 300_K
| 12>   # Controle: mesmo ponto inicial e banho; passo reduzido para conferir a reacao.
| 13>   Timestep 0.5_fs
| 14>   Thermostat Berendsen 300_K Timecon 20.0_fs
| 15>   Dump Position Stride 1 Filename "al_agua_nh3_dt05-traj.xyz"
| 16>   # 4000 x 0.5 fs = 2 ps = 2e-12 s.
| 17>   Run 4000
| 18> end
| 19> # Carga total +3 e multiplicidade 1; geometria original sem pre-otimizacao.
| 20> * xyzfile 3 1 al_agua_nh3.xyz
| 21> 
| 22>                          ****END OF INPUT****
================================================================================

-------------------------------------------------------------------------------------------

MD module early startup:
  Installed signal handlers.
  Extracted executable name.
  Initialized library credit list.
  Parsed command line without errors.
  Initialized console color.
Done.

Will write log file to "al_agua_nh3_dt05.md.log".

Command line:  /home/henrique/bin/orca611/orca_md -orca al_agua_nh3_dt05

-------------------------------------------------------------------------------------------


     _____    ___    _   _       _                  ______ ______  _____   ___  
    /  ___|  / _ \  | \ | |     | |           _    /  __  \| ___ \/  __ \ / _ \ 
    \ `--.  / /_\ \ |  \| |   __| | _   _   _| |_  | |  | || |_/ /| /  \// /_\ \
     `--. \ |  _  | | . ` |  / _` || | | | |_   _| | |  | ||    / | |    |  _  |
    /\__/ / | | | | | |\  | | (_| || |_| |   |_|   | \__/ || |\ \ | \__/\| | | |
    \____/  \_| |_/ \_| \_/  \__,_| \__, |          \____/ \_| \_| \____/\_| |_/
                                     __/ |                                      
                                    |___/                                       


    ####################################################################
    ########     Scriptable Nuclear Dynamics (SANdy) + ORCA     ########
    ########           (c) Martin Brehm, 2016 - 2025            ########
    ########           Paderborn University, Germany            ########
    ########           https://sanscript.org/orcamd             ########
    ####################################################################


  * Compiled as ORCA module. Called from ORCA.
  * ORCA base name: "al_agua_nh3_dt05"
  * Source code version: Jun 07 2025, compiled at Nov 24 2025 07:23:22.
  * Enabled features: SAN_MD, SAN_INTERPRETER
  * Libraries: KISS_FFT, LBFGSBC
  * Executable name: "/home/henrique/bin/orca611/orca_md"
  * Messages are redirected, Errors are redirected, Output is redirected, Input is redirected
  * Running on NotebookAW at Wed Sep 30 19:19:35 2026 (PID 19387)
  * Running in /home/henrique/aimd-workshop/exercicios-pal8-20260928/al_agua_nh3_dt05_al23

    -----------------------------------------------

    Technical information:

  * Compiler:      LLVM, CLANG 20.1.6, "Clang 20.1.6 (/home/frankw/CompEnv/src/llvm2016/llvm-project/clang 47addd4540b4c393e478ba92bea2589e330c57fb)", Linux, __cplusplus=201103L
  * Compile host:  x86_64, Little Endian, char=8bits, int=4b, long=8b, ll=8b, addr=8b, 0x01020304=4,3,2,1.
  * Class sizes:   InputElem=248, ValuePair=112, Type=96, Value=8, VMToken=8, VMInst=8
  * Compile flags: MMX, SSE, SSE2, SSE3, SSSE3, SSE4.1, SSE4.2, POPCNT, FMA3, AVX, AVX2
  * Local machine: Intel(R) Core(TM) Ultra 9 185H (GenuineIntel), Family 6, Model 170, Stepping 4
                   1 CPU, 11 cores, 22 threads,  Uptime 6h 09m 43s
                   MMX, SSE, SSE2, SSE3, SSSE3, SSE4.1, SSE4.2, POPCNT, AES, FMA3, AVX, AVX2, SHA
                   Caches: 11x L1d (528 KiB), 11x L1i (704 KiB), 11x L2 (22 MiB), 1x L3 (24 MiB)
  * Op. System:    Ubuntu 24.04.4 LTS, Linux version 6.18.33.2-microsoft-standard-WSL2 
  * Phys. Memory:  15.38 GiB total,  13.94 GiB free
  * Stack size:    8.00 MiB


The following libraries are included:

  * KISS FFT,   Version 131.1.0 (02/2021), License: BSD 3-clause
      (c) 2003-2010 Mark Borgerding, see https://github.com/mborgerding/kissfft

  * L-BFGS-B-C, Version 3.0 (04/2011),     License: BSD 3-clause
      (c) Stephen Becker, see https://github.com/stephenbeckr/L-BFGS-B-C

  * MT19937 Pseudo Random Number Gen.,     License: Custom (permissive)
      (c) 1997-2005 Makoto Matsumoto, Takuji Nishimura, Mutsuo Saito, see https://github.com/clibs/mt19937ar


Initializing SAN engine...
  24 physical quantities and 49 units added.
  Initialized SAN language:
    97 operators, 57 keywords, 4 namespaces, 35 types, 183 flags
Done.


>>> Reading Input File >>>

Reading input file "al_agua_nh3_dt05.mdinput" ...
  353 bytes read.
  10 lines.
Tokenizing input...
Found 23 tokens in file.
  ( 15 identifiers,      7 numeric literals,  3 comments,  
     1 string literals )

Warning: Line endings are non-uniform: 1 x \n, 9 x \r\n

<<< Finished Reading Input File (took 0.000 seconds) <<<


Using the following settings:
  Interpret:              true
  Execution:              SAN-VM
  Parser verbose level:   1
  Execute verbose level:  2
  Syntax highlighting:    0
  Static vars:            false
  Dynamic types:          true
  Max. recursion depth:   200
  Max. nesting depth:     1000
  Max. argument count:    100
  Only parse:             false


>>> Parsing Input Script >>>

Handled 4 underscore identifiers.
Handling module imports...
  Importing module "Math" to global namespace.
  Importing module "MD" to global namespace.
Handled 2 module imports.
Handled 8 variable occurrences.
Assigned 7 identifiers.
Handling functions,      iteration  1...
                         iteration  2...
                         iteration  3...
Handling "FOR" loops...
Handling AutoDecl,       iteration  1...
No auto declarations.
Assigned 4 flags, re-doing function handling...
Handling functions ( 2), iteration  1...
                         iteration  2...
Handling "FOR" loops...
Handling AutoDecl,       iteration  1...
No auto declarations.
Handling functions, final pass...
  Moving "Void" argument 5 ("Dump") of function "Thermostat" up 1 levels to "ROOT".
Function handling done (2 macro-iterations, 0.001 seconds).
Handling keywords,       iteration  1...
Prepared 6 argument lists.
Assigned 13 read-only flags.
Assigned 21 simple VP flags.
Assigned 20 tree IDs.

<<< Finished Parsing Input Script (took 0.001 seconds) <<<


SAN-VM: Compiling...
  Optimization level: Not specified. Using default ("-O2").
Done (took 0.000 seconds).


  Part              # Tokens    # Registers    # Shortcuts    # Optimizations
  ---------------------------------------------------------------------------
  Main Program            48              0              0                  0


-------------------------------------------------------------------------------------------

>>> Initializing MD engine with interface "ORCA" >>>



>>>>>>>>>>>>>>>>>>>>>>>>>>>>>>>>>>>>>>>>>>>>>>>>>>>>
>>>   Output of System Information (from ORCA)   >>>
>>>>>>>>>>>>>>>>>>>>>>>>>>>>>>>>>>>>>>>>>>>>>>>>>>>>

---------------------------------
CARTESIAN COORDINATES (ANGSTROEM)
---------------------------------
  Al    -1.698430    0.300390   -0.526600
  O     -1.754340    2.288600   -0.167680
  H     -1.060740    2.966580   -0.394260
  H     -2.574020    2.860040   -0.190670
  O      0.189140    0.011370   -1.091620
  H      0.747570    0.536330   -1.721220
  H      0.819100   -0.682840   -0.764950
  O     -4.160280    0.333400    0.212070
  H     -4.888630   -0.238600   -0.139180
  H     -4.414220    0.369610    1.171240
  O     -1.899530   -1.633200   -0.988750
  H     -1.189170   -2.308300   -0.846010
  H     -2.721130   -2.182000   -0.883900
  O     -2.277170    0.419960   -2.390430
  H     -1.953690   -0.268640   -3.023030
  H     -2.554890    1.184120   -2.957220
  O     -1.298330    0.198120    1.329350
  H     -0.889990    0.972380    1.793080
  H     -1.068660   -0.600480    1.868910
  N     -7.753070    0.217690    1.572840
  H     -7.362480   -0.219000    2.407790
  H     -8.235460    1.077920    1.833060
  H     -8.413480   -0.422340    1.131680

----------------------------
CARTESIAN COORDINATES (A.U.)
----------------------------
  NO LB      ZA    FRAG     MASS         X           Y           Z
   0 Al   13.0000    0    26.982   -3.209568    0.567655   -0.995130
   1 O     8.0000    0    15.999   -3.315222    4.324827   -0.316869
   2 H     1.0000    0     1.008   -2.004508    5.606024   -0.745043
   3 H     1.0000    0     1.008   -4.864193    5.404692   -0.360314
   4 O     8.0000    0    15.999    0.357423    0.021486   -2.062863
   5 H     1.0000    0     1.008    1.412703    1.013517   -3.252634
   6 H     1.0000    0     1.008    1.547875   -1.290381   -1.445546
   7 O     8.0000    0    15.999   -7.861790    0.630035    0.400754
   8 H     1.0000    0     1.008   -9.238172   -0.450889   -0.263012
   9 H     1.0000    0     1.008   -8.341667    0.698462    2.213323
  10 O     8.0000    0    15.999   -3.589591   -3.086301   -1.868467
  11 H     1.0000    0     1.008   -2.247206   -4.362055   -1.598727
  12 H     1.0000    0     1.008   -5.142190   -4.123382   -1.670329
  13 O     8.0000    0    15.999   -4.303228    0.793609   -4.517258
  14 H     1.0000    0     1.008   -3.691939   -0.507656   -5.712699
  15 H     1.0000    0     1.008   -4.828042    2.237663   -5.588336
  16 O     8.0000    0    15.999   -2.453488    0.374393    2.512107
  17 H     1.0000    0     1.008   -1.681837    1.837532    3.388430
  18 H     1.0000    0     1.008   -2.019475   -1.134743    3.531728
  19 N     7.0000    0    14.007  -14.651179    0.411374    2.972237
  20 H     1.0000    0     1.008  -13.913071   -0.413850    4.550064
  21 H     1.0000    0     1.008  -15.562764    2.036974    3.463981
  22 H     1.0000    0     1.008  -15.899173   -0.798107    2.138565

Doing XTB calculation. Basis set is not printed.

############################################
   Total Atom Count:              23
   Total System Mass:        152.103 a.m.u.
   Total Basis Dimension:          0
   Total Electron Number:          0
   Total Charge:                   3
   Total Multiplicity:             1
  ------------------------------------------
   ReducePrint:                 true
   Print Mulliken Pop:             1
   Print Loewdin Pop:              1
   Print Mayer Pop:                1
   Print Orbital Energies:         1
############################################

<<<<<<<<<<<<<<<<<<<<<<<<<<<<<<<<<<<<<<<<<<<<<<<<<<<<
<<<          End of System Information           <<<
<<<<<<<<<<<<<<<<<<<<<<<<<<<<<<<<<<<<<<<<<<<<<<<<<<<<


Initializing regions...

Defined regions:
         All:    23 atoms,    152.103 a.m.u.
          QM:   All
      Active:   All



### System Geometry ###

  * Region "All" = "Active" = "QM":
      Bounding box: from (   -8.413 |   -2.308 |   -3.023 )
                      to (    0.819 |    2.967 |    2.408 ) Angstrom
      System extent:     (    9.233 |    5.275 |    5.431 ) Angstrom
      Center of mass:    (   -2.497 |    0.264 |   -0.279 ) Angstrom
      Total mass:           152.103 a.m.u.

      Moment of inertia: (       384.51 |         2.39 |       210.68 )
                         (         2.39 |       962.34 |       -21.65 ) a.m.u. Angstrom^2
                         (       210.68 |       -21.65 |       891.16 )
      Singular values:   (       308.22 |       945.20 |       984.59 ) a.m.u. Angstrom^2



Smallest interatomic distance from active region: 0.989440 Angstrom (atoms 13 - 14).


<<< MD engine initialization done (took 0.362 seconds) <<<


###############################################################
########        Executing Input Script (SAN-VM)        ########
###############################################################

Execution verbose level is 2.

-------------------------------------------------------------------------------------------



>>>>>> Randomize( 42 )

Initialized random number generator seed to 42.


>>>>>> Initvel( 300_K )

Old temperature of the total system is     0.000 K.

Initializing atom velocities for region "all" to 300.000 K:
  Creating Maxwell-Boltzmann distribution...
  Temperature after random initialization is 339.531 K.
  Rescaling velocities to match desired initial temperature (factor 0.939985)...
  Removing initial center of mass movement...
  Temperature after center of mass movement removal is 296.449 K.
  Removing initial angular velocity...
    Angular momentum before:  (  -0.27480010 |  -0.36808311 |  -0.81367342 ) a.m.u. Angstrom^2 fs^-1
    Angular velocity before:  (  -0.00023731 |  -0.00040140 |  -0.00086670 ) fs^-1
    Angular momentum after:   (   0.00000000 |   0.00000000 |   0.00000000 ) a.m.u. Angstrom^2 fs^-1
    Angular velocity after:   (   0.00000000 |   0.00000000 |   0.00000000 ) fs^-1
  Temperature after angular velocity removal is 280.445 K.
  Rescaling velocities to match desired initial temperature (factor 1.034277)...
Done.

New temperature of the total system is   300.000 K.


>>>>>> Timestep( 0.5_fs )

Setting integration time step to 0.50 fs.

The lightest element in the active region has an atomic mass of 1.008 a.m.u.
Recommending time step not larger than 0.50 .. 1.00 fs.
  --> choice seems reasonable


>>>>>> Thermostat( Berendsen, 300_K, Timecon, 20_fs )

Switching on thermostat for region "All": Type Berendsen, temperature 300.00 K, time constant 20.00 fs, global.


>>>>>> Dump( Position, Stride, 1, Filename, "al_agua_nh3_dt05-traj.xyz" )

Modified writing position trajectory for region "all": Format XYZ, stride 1, filename "al_agua_nh3_dt05-traj.xyz", append.


>>>>>> Run( 4000 )


***************************************************
****    Starting MD loop for     4000 steps    ****
***************************************************


Defined regions:
         All:    23 atoms,    152.103 a.m.u.
          QM:   All
      Active:   All


Dump: Will write Position data of region "All" in XYZ format with stride 1 to "al_agua_nh3_dt05-traj.xyz" (append).

Hint: To compute properties (dipole, etc.) in each step, specify "dump properties" before run.

Active Thermostats:
  (*) Region "All": Type Berendsen, temperature 300.00 K, time constant 20.00 fs, global.


Will write restart file to "al_agua_nh3_dt05.mdrestart" after each step.
Will write energy statistics to "al_agua_nh3_dt05-md-ener.csv" after each step.

The system contains 69 active degrees of freedom (23 active atoms * 3).

Smallest interatomic distance from active region: 0.989440 Angstrom (atoms 13 - 14).



       Step |  Sim. Time | Iter |  t_Ener |  t_Grad |     Temp |     E_Kin |         E_Pot |         E_Tot |      Cons.Qty | E.Drift
            |       [fs] |      |     [s] |     [s] |      [K] | [Hartree] |     [Hartree] |     [Hartree] |     [Hartree] |     [K]
------------|------------|------|---------|---------|----------|-----------|---------------|---------------|---------------|-----------
          0          0.0             0.05               300.00    0.032776      -34.562107      -34.529330                          
          1          0.5             0.02               297.38    0.032490      -34.561973      -34.529483      -34.529491      0.00
          2          1.0             0.02               291.53    0.031851      -34.561307      -34.529456      -34.529487      0.02
          3          1.5             0.02               281.76    0.030783      -34.560172      -34.529388      -34.529471      0.09
          4          2.0             0.02               270.55    0.029559      -34.558835      -34.529277      -34.529441      0.23
          5          2.5             0.02               261.87    0.028611      -34.557750      -34.529139      -34.529410      0.37
          6          3.0             0.03               259.64    0.028367      -34.557378      -34.529011      -34.529395      0.44
          7          3.5             0.02               265.54    0.029012      -34.557938      -34.528926      -34.529407      0.38
          8          4.0             0.02               277.68    0.030338      -34.559236      -34.528898      -34.529442      0.22
          9          4.5             0.02               291.23    0.031818      -34.560732      -34.528914      -34.529482      0.04
         10          5.0             0.02               300.82    0.032867      -34.561808      -34.528941      -34.529507     -0.08
         11          5.5             0.03               303.24    0.033131      -34.562079      -34.528948      -34.529505     -0.07
         12          6.0             0.03               298.94    0.032660      -34.561578      -34.528917      -34.529477      0.06
         13          6.5             0.03               291.74    0.031874      -34.560730      -34.528856      -34.529439      0.24
         14          7.0             0.03               286.79    0.031333      -34.560124      -34.528791      -34.529411      0.36
         15          7.5             0.03               287.85    0.031449      -34.560200      -34.528751      -34.529405      0.39
         16          8.0             0.03               295.71    0.032308      -34.561062      -34.528754      -34.529420      0.32
         17          8.5             0.03               308.48    0.033703      -34.562502      -34.528799      -34.529441      0.23
         18          9.0             0.03               323.10    0.035300      -34.564183      -34.528883      -34.529461      0.14
         19          9.5             0.03               336.74    0.036790      -34.565791      -34.529001      -34.529475      0.07
         20         10.0             0.02               347.26    0.037940      -34.567083      -34.529144      -34.529486      0.02
         21         10.5             0.03               353.27    0.038597      -34.567894      -34.529298      -34.529491     -0.00
         22         11.0             0.03               354.42    0.038723      -34.568166      -34.529444      -34.529484      0.03
         23         11.5             0.03               351.93    0.038450      -34.568018      -34.529568      -34.529463      0.13
         24         12.0             0.03               348.84    0.038113      -34.567787      -34.529675      -34.529433      0.26
         25         12.5             0.02               349.15    0.038147      -34.567935      -34.529788      -34.529409      0.37
         26         13.0             0.02               355.78    0.038871      -34.568814      -34.529943      -34.529408      0.38
         27         13.5             0.03               368.52    0.040263      -34.570425      -34.530162      -34.529434      0.26
         28         14.0             0.03               383.69    0.041920      -34.572357      -34.530437      -34.529475      0.07
         29         14.5             0.02               395.86    0.043249      -34.573989      -34.530740      -34.529509     -0.08
         30         15.0             0.03               400.75    0.043784      -34.574815      -34.531032      -34.529519     -0.13
         31         15.5             0.03               397.35    0.043413      -34.574700      -34.531287      -34.529501     -0.05
         32         16.0             0.03               388.41    0.042436      -34.573935      -34.531499      -34.529466      0.11
         33         16.5             0.03               378.97    0.041405      -34.573089      -34.531685      -34.529430      0.28
         34         17.0             0.02               373.94    0.040855      -34.572728      -34.531873      -34.529411      0.36
         35         17.5             0.03               375.94    0.041073      -34.573162      -34.532088      -34.529414      0.35
         36         18.0             0.03               384.61    0.042021      -34.574364      -34.532343      -34.529432      0.27
         37         18.5             0.03               397.47    0.043426      -34.576065      -34.532639      -34.529454      0.17
         38         19.0             0.03               411.30    0.044936      -34.577908      -34.532971      -34.529475      0.07
         39         19.5             0.03               423.06    0.046222      -34.579555      -34.533333      -34.529492     -0.01
         40         20.0             0.03               430.42    0.047025      -34.580735      -34.533710      -34.529503     -0.06
         41         20.5             0.02               431.99    0.047197      -34.581277      -34.534081      -34.529504     -0.06
         42         21.0             0.03               427.97    0.046758      -34.581183      -34.534425      -34.529491     -0.00
         43         21.5             0.03               420.59    0.045952      -34.580687      -34.534735      -34.529463      0.13
         44         22.0             0.02               413.80    0.045209      -34.580233      -34.535023      -34.529432      0.27
         45         22.5             0.03               411.60    0.044970      -34.580290      -34.535320      -34.529416      0.34
         46         23.0             0.02               415.88    0.045436      -34.581092      -34.535656      -34.529427      0.29
         47         23.5             0.02               424.93    0.046425      -34.582465      -34.536040      -34.529461      0.13
         48         24.0             0.02               434.21    0.047439      -34.583893      -34.536454      -34.529499     -0.04
         49         24.5             0.02               438.71    0.047931      -34.584797      -34.536866      -34.529523     -0.15
         50         25.0             0.02               435.55    0.047586      -34.584829      -34.537243      -34.529520     -0.13
         51         25.5             0.03               425.48    0.046485      -34.584052      -34.537567      -34.529492     -0.01
         52         26.0             0.02               412.40    0.045057      -34.582901      -34.537844      -34.529455      0.16
         53         26.5             0.02               401.49    0.043865      -34.581964      -34.538099      -34.529425      0.30
         54         27.0             0.02               396.69    0.043341      -34.581702      -34.538361      -34.529417      0.34
         55         27.5             0.02               399.16    0.043610      -34.582260      -34.538650      -34.529428      0.29
         56         28.0             0.02               407.34    0.044504      -34.583476      -34.538972      -34.529449      0.19
         57         28.5             0.02               418.26    0.045697      -34.585023      -34.539326      -34.529472      0.09
         58         29.0             0.02               428.73    0.046841      -34.586547      -34.539705      -34.529490      0.00
         59         29.5             0.03               436.13    0.047649      -34.587750      -34.540100      -34.529504     -0.06
         60         30.0             0.02               438.73    0.047934      -34.588428      -34.540494      -34.529509     -0.09
         61         30.5             0.02               436.20    0.047657      -34.588524      -34.540867      -34.529501     -0.05
         62         31.0             0.03               430.09    0.046989      -34.588198      -34.541208      -34.529478      0.06
         63         31.5             0.03               423.79    0.046301      -34.587826      -34.541525      -34.529448      0.20
         64         32.0             0.02               421.36    0.046035      -34.587880      -34.541844      -34.529427      0.29
         65         32.5             0.02               425.37    0.046473      -34.588672      -34.542198      -34.529430      0.28
         66         33.0             0.02               435.23    0.047551      -34.590155      -34.542604      -34.529457      0.15
         67         33.5             0.02               447.17    0.048856      -34.591911      -34.543055      -34.529495     -0.02
         68         34.0             0.02               456.14    0.049836      -34.593358      -34.543522      -34.529524     -0.16
         69         34.5             0.02               458.32    0.050074      -34.594047      -34.543973      -34.529532     -0.19
         70         35.0             0.02               452.96    0.049488      -34.593872      -34.544384      -34.529515     -0.11
         71         35.5             0.02               442.55    0.048350      -34.593102      -34.544752      -34.529483      0.03
         72         36.0             0.02               431.52    0.047145      -34.592235      -34.545090      -34.529453      0.17
         73         36.5             0.03               424.06    0.046331      -34.591752      -34.545422      -34.529437      0.25
         74         37.0             0.03               422.40    0.046150      -34.591916      -34.545767      -34.529439      0.24
         75         37.5             0.02               426.29    0.046575      -34.592710      -34.546135      -34.529454      0.17
         76         38.0             0.02               433.67    0.047380      -34.593910      -34.546530      -34.529474      0.07
         77         38.5             0.02               441.68    0.048256      -34.595202      -34.546947      -34.529494     -0.02
         78         39.0             0.02               447.52    0.048894      -34.596271      -34.547377      -34.529511     -0.09
         79         39.5             0.02               448.97    0.049052      -34.596856      -34.547804      -34.529521     -0.14
         80         40.0             0.02               444.94    0.048612      -34.596819      -34.548208      -34.529518     -0.13
         81         40.5             0.02               436.05    0.047640      -34.596212      -34.548572      -34.529502     -0.05
         82         41.0             0.03               424.81    0.046412      -34.595307      -34.548895      -34.529475      0.07
         83         41.5             0.02               414.80    0.045319      -34.594513      -34.549194      -34.529452      0.18
         84         42.0             0.03               408.96    0.044681      -34.594174      -34.549493      -34.529446      0.20
         85         42.5             0.02               407.80    0.044554      -34.594366      -34.549812      -34.529463      0.12
         86         43.0             0.02               408.94    0.044679      -34.594828      -34.550149      -34.529494     -0.02
         87         43.5             0.03               408.25    0.044603      -34.595084      -34.550481      -34.529524     -0.15
         88         44.0             0.02               401.93    0.043913      -34.594693      -34.550781      -34.529538     -0.22
         89         44.5             0.03               388.46    0.042441      -34.593461      -34.551020      -34.529529     -0.18
         90         45.0             0.02               369.34    0.040352      -34.591539      -34.551187      -34.529502     -0.05
         91         45.5             0.02               348.50    0.038075      -34.589364      -34.551289      -34.529468      0.10
         92         46.0             0.02               330.54    0.036113      -34.587463      -34.551350      -34.529443      0.22
         93         46.5             0.02               318.88    0.034839      -34.586234      -34.551395      -34.529436      0.25
         94         47.0             0.03               314.58    0.034369      -34.585813      -34.551444      -34.529444      0.21
         95         47.5             0.02               316.44    0.034573      -34.586081      -34.551508      -34.529462      0.13
         96         48.0             0.02               321.85    0.035164      -34.586754      -34.551590      -34.529482      0.04
         97         48.5             0.02               327.76    0.035809      -34.587496      -34.551687      -34.529502     -0.05
         98         49.0             0.03               331.42    0.036209      -34.587997      -34.551788      -34.529515     -0.11
         99         49.5             0.02               331.02    0.036165      -34.588043      -34.551878      -34.529518     -0.13
        100         50.0             0.02               326.28    0.035648      -34.587588      -34.551941      -34.529507     -0.08
        101         50.5             0.02               318.83    0.034834      -34.586804      -34.551970      -34.529484      0.03
        102         51.0             0.02               311.80    0.034066      -34.586044      -34.551978      -34.529459      0.15
        103         51.5             0.03               308.42    0.033697      -34.585685      -34.551989      -34.529445      0.21
        104         52.0             0.02               310.23    0.033894      -34.585919      -34.552025      -34.529453      0.17
        105         52.5             0.02               315.98    0.034522      -34.586618      -34.552095      -34.529479      0.05
        106         53.0             0.02               322.16    0.035198      -34.587386      -34.552188      -34.529510     -0.09
        107         53.5             0.02               324.67    0.035471      -34.587750      -34.552278      -34.529531     -0.18
        108         54.0             0.02               320.83    0.035053      -34.587390      -34.552338      -34.529532     -0.19
        109         54.5             0.02               310.71    0.033947      -34.586295      -34.552348      -34.529512     -0.10
        110         55.0             0.02               297.08    0.032457      -34.584766      -34.552309      -34.529481      0.04
        111         55.5             0.02               284.20    0.031050      -34.583285      -34.552235      -34.529452      0.18
        112         56.0             0.02               275.99    0.030153      -34.582305      -34.552152      -34.529436      0.25
        113         56.5             0.03               274.53    0.029994      -34.582076      -34.552082      -34.529437      0.25
        114         57.0             0.02               279.64    0.030552      -34.582590      -34.552038      -34.529450      0.18
        115         57.5             0.02               289.29    0.031606      -34.583634      -34.552028      -34.529470      0.09
        116         58.0             0.02               300.58    0.032840      -34.584890      -34.552050      -34.529490      0.00
        117         58.5             0.02               310.55    0.033929      -34.586025      -34.552096      -34.529507     -0.08
        118         59.0             0.02               316.90    0.034623      -34.586774      -34.552151      -34.529515     -0.11
        119         59.5             0.02               318.81    0.034831      -34.587028      -34.552197      -34.529508     -0.08
        120         60.0             0.02               317.41    0.034678      -34.586903      -34.552224      -34.529486      0.02
        121         60.5             0.02               315.77    0.034499      -34.586739      -34.552240      -34.529458      0.15
        122         61.0             0.02               317.67    0.034707      -34.586975      -34.552269      -34.529437      0.24
        123         61.5             0.02               325.63    0.035576      -34.587918      -34.552341      -34.529438      0.24
        124         62.0             0.02               339.31    0.037071      -34.589547      -34.552476      -34.529462      0.13
        125         62.5             0.02               355.34    0.038823      -34.591490      -34.552667      -34.529498     -0.04
        126         63.0             0.02               368.83    0.040296      -34.593188      -34.552891      -34.529530     -0.18
        127         63.5             0.02               375.63    0.041040      -34.594156      -34.553116      -34.529543     -0.24
        128         64.0             0.02               374.16    0.040879      -34.594193      -34.553314      -34.529533     -0.20
        129         64.5             0.02               365.98    0.039986      -34.593457      -34.553472      -34.529506     -0.07
        130         65.0             0.02               355.03    0.038788      -34.592381      -34.553593      -34.529473      0.08
        131         65.5             0.02               345.86    0.037786      -34.591483      -34.553696      -34.529448      0.19
        132         66.0             0.02               341.84    0.037348      -34.591154      -34.553806      -34.529440      0.23
        133         66.5             0.03               344.04    0.037589      -34.591526      -34.553938      -34.529449      0.19
        134         67.0             0.02               351.20    0.038370      -34.592471      -34.554101      -34.529468      0.10
        135         67.5             0.02               360.54    0.039390      -34.593684      -34.554293      -34.529491     -0.00
        136         68.0             0.02               368.85    0.040299      -34.594804      -34.554506      -34.529511     -0.09
        137         68.5             0.02               373.45    0.040802      -34.595524      -34.554722      -34.529521     -0.14
        138         69.0             0.02               373.04    0.040757      -34.595680      -34.554924      -34.529518     -0.13
        139         69.5             0.02               368.27    0.040235      -34.595331      -34.555096      -34.529500     -0.04
        140         70.0             0.02               361.81    0.039530      -34.594771      -34.555241      -34.529471      0.09
        141         70.5             0.02               357.47    0.039056      -34.594433      -34.555377      -34.529447      0.20
        142         71.0             0.03               358.38    0.039155      -34.594688      -34.555534      -34.529439      0.23
        143         71.5             0.03               365.23    0.039903      -34.595636      -34.555732      -34.529455      0.16
        144         72.0             0.02               375.67    0.041044      -34.597021      -34.555977      -34.529488      0.01
        145         72.5             0.02               385.25    0.042091      -34.598341      -34.556250      -34.529522     -0.15
        146         73.0             0.02               389.44    0.042548      -34.599070      -34.556522      -34.529544     -0.24
        147         73.5             0.02               385.59    0.042127      -34.598889      -34.556762      -34.529544     -0.24
        148         74.0             0.02               373.95    0.040856      -34.597806      -34.556950      -34.529524     -0.15
        149         74.5             0.03               357.50    0.039059      -34.596138      -34.557079      -34.529493     -0.01
        150         75.0             0.02               340.62    0.037214      -34.594378      -34.557164      -34.529464      0.12
        151         75.5             0.02               327.35    0.035764      -34.592989      -34.557224      -34.529447      0.20
        152         76.0             0.03               319.86    0.034947      -34.592228      -34.557281      -34.529449      0.19
        153         76.5             0.02               317.93    0.034735      -34.592082      -34.557347      -34.529464      0.12
        154         77.0             0.02               319.30    0.034885      -34.592309      -34.557424      -34.529488      0.01
        155         77.5             0.02               320.72    0.035040      -34.592545      -34.557505      -34.529510     -0.09
        156         78.0             0.02               319.06    0.034859      -34.592432      -34.557574      -34.529525     -0.16
        157         78.5             0.03               312.32    0.034122      -34.591732      -34.557610      -34.529527     -0.17
        158         79.0             0.03               300.47    0.032828      -34.590424      -34.557596      -34.529512     -0.10
        159         79.5             0.02               285.76    0.031221      -34.588748      -34.557527      -34.529483      0.03
        160         80.0             0.02               272.07    0.029725      -34.587144      -34.557418      -34.529453      0.17
        161         80.5             0.02               263.40    0.028777      -34.586076      -34.557298      -34.529435      0.25
        162         81.0             0.02               261.84    0.028607      -34.585804      -34.557197      -34.529440      0.23
        163         81.5             0.02               266.44    0.029110      -34.586238      -34.557128      -34.529466      0.11
        164         82.0             0.02               273.57    0.029889      -34.586977      -34.557088      -34.529500     -0.04
        165         82.5             0.02               278.58    0.030436      -34.587491      -34.557054      -34.529526     -0.16
        166         83.0             0.02               277.89    0.030360      -34.587361      -34.557001      -34.529534     -0.20
        167         83.5             0.02               270.46    0.029549      -34.586454      -34.556905      -34.529521     -0.14
        168         84.0             0.02               258.15    0.028204      -34.584963      -34.556759      -34.529493     -0.01
        169         84.5             0.02               244.88    0.026754      -34.583327      -34.556573      -34.529461      0.14
        170         85.0             0.02               234.96    0.025670      -34.582038      -34.556368      -34.529438      0.24
        171         85.5             0.02               231.33    0.025274      -34.581445      -34.556171      -34.529434      0.26
        172         86.0             0.02               234.49    0.025619      -34.581620      -34.556001      -34.529447      0.20
        173         86.5             0.02               242.51    0.026496      -34.582360      -34.555864      -34.529471      0.09
        174         87.0             0.02               251.96    0.027528      -34.583284      -34.555755      -34.529497     -0.03
        175         87.5             0.02               259.23    0.028322      -34.583982      -34.555660      -34.529516     -0.12
        176         88.0             0.02               261.72    0.028594      -34.584153      -34.555559      -34.529522     -0.14
        177         88.5             0.02               258.87    0.028283      -34.583714      -34.555431      -34.529509     -0.09
        178         89.0             0.02               252.59    0.027596      -34.582866      -34.555270      -34.529481      0.04
        179         89.5             0.02               246.80    0.026964      -34.582051      -34.555087      -34.529447      0.20
        180         90.0             0.02               245.94    0.026871      -34.581784      -34.554913      -34.529425      0.30
        181         90.5             0.02               252.85    0.027625      -34.582407      -34.554782      -34.529426      0.30
        182         91.0             0.02               267.18    0.029190      -34.583904      -34.554714      -34.529450      0.19
        183         91.5             0.02               285.44    0.031186      -34.585895      -34.554709      -34.529485      0.02
        184         92.0             0.02               302.66    0.033068      -34.587815      -34.554748      -34.529517     -0.12
        185         92.5             0.02               314.55    0.034366      -34.589168      -34.554803      -34.529531     -0.19
        186         93.0             0.02               319.19    0.034873      -34.589722      -34.554850      -34.529524     -0.15
        187         93.5             0.02               317.65    0.034704      -34.589579      -34.554875      -34.529500     -0.04
        188         94.0             0.02               313.36    0.034237      -34.589118      -34.554881      -34.529469      0.10
        189         94.5             0.02               310.67    0.033943      -34.588828      -34.554885      -34.529443      0.22
        190         95.0             0.02               313.03    0.034201      -34.589113      -34.554912      -34.529433      0.26
        191         95.5             0.02               321.73    0.035151      -34.590133      -34.554982      -34.529442      0.22
        192         96.0             0.02               335.53    0.036659      -34.591762      -34.555103      -34.529464      0.12
        193         96.5             0.02               351.33    0.038384      -34.593659      -34.555275      -34.529492     -0.00
        194         97.0             0.02               365.31    0.039912      -34.595393      -34.555481      -34.529516     -0.11
        195         97.5             0.02               374.31    0.040895      -34.596597      -34.555702      -34.529528     -0.17
        196         98.0             0.02               376.90    0.041178      -34.597090      -34.555912      -34.529522     -0.15
        197         98.5             0.02               374.11    0.040873      -34.596969      -34.556096      -34.529499     -0.04
        198         99.0             0.02               369.27    0.040344      -34.596602      -34.556258      -34.529467      0.11
        199         99.5             0.02               366.72    0.040066      -34.596485      -34.556419      -34.529441      0.22
        200        100.0             0.03               369.80    0.040402      -34.597011      -34.556609      -34.529435      0.25
        201        100.5             0.02               379.15    0.041424      -34.598271      -34.556846      -34.529451      0.18
        202        101.0             0.02               392.45    0.042877      -34.600012      -34.557135      -34.529481      0.04
        203        101.5             0.02               405.57    0.044310      -34.601771      -34.557461      -34.529511     -0.09
        204        102.0             0.02               414.44    0.045280      -34.603079      -34.557799      -34.529529     -0.17
        205        102.5             0.02               416.70    0.045526      -34.603653      -34.558127      -34.529529     -0.18
        206        103.0             0.02               412.44    0.045061      -34.603486      -34.558425      -34.529513     -0.10
        207        103.5             0.02               404.12    0.044152      -34.602842      -34.558690      -34.529486      0.02
        208        104.0             0.02               395.54    0.043214      -34.602145      -34.558931      -34.529459      0.14
        209        104.5             0.02               390.37    0.042650      -34.601818      -34.559168      -34.529443      0.22
        210        105.0             0.02               390.69    0.042685      -34.602109      -34.559424      -34.529445      0.21
        211        105.5             0.02               396.15    0.043282      -34.602994      -34.559712      -34.529464      0.12
        212        106.0             0.02               404.19    0.044160      -34.604191      -34.560032      -34.529491     -0.00
        213        106.5             0.02               411.06    0.044910      -34.605279      -34.560369      -34.529518     -0.12
        214        107.0             0.02               413.28    0.045153      -34.605855      -34.560702      -34.529533     -0.19
        215        107.5             0.02               409.04    0.044690      -34.605695      -34.561005      -34.529531     -0.18
        216        108.0             0.02               398.97    0.043590      -34.604851      -34.561261      -34.529510     -0.09
        217        108.5             0.02               386.17    0.042191      -34.603662      -34.561471      -34.529478      0.06
        218        109.0             0.03               374.97    0.040968      -34.602621      -34.561653      -34.529450      0.18
        219        109.5             0.02               369.06    0.040322      -34.602158      -34.561836      -34.529439      0.23
        220        110.0             0.02               369.73    0.040395      -34.602437      -34.562042      -34.529450      0.18
        221        110.5             0.02               375.38    0.041012      -34.603291      -34.562279      -34.529476      0.07
        222        111.0             0.02               382.42    0.041782      -34.604319      -34.562537      -34.529504     -0.06
        223        111.5             0.02               386.99    0.042280      -34.605080      -34.562800      -34.529522     -0.15
        224        112.0             0.02               386.51    0.042229      -34.605274      -34.563045      -34.529526     -0.16
        225        112.5             0.02               380.66    0.041589      -34.604847      -34.563258      -34.529512     -0.10
        226        113.0             0.02               371.31    0.040567      -34.604002      -34.563434      -34.529489      0.01
        227        113.5             0.03               361.77    0.039525      -34.603108      -34.563582      -34.529464      0.12
        228        114.0             0.02               355.47    0.038837      -34.602558      -34.563721      -34.529447      0.20
        229        114.5             0.02               354.57    0.038739      -34.602612      -34.563873      -34.529446      0.20
        230        115.0             0.03               359.12    0.039236      -34.603289      -34.564053      -34.529460      0.14
        231        115.5             0.02               367.05    0.040102      -34.604367      -34.564265      -34.529485      0.03
        232        116.0             0.02               375.00    0.040971      -34.605471      -34.564500      -34.529510     -0.09
        233        116.5             0.02               379.66    0.041480      -34.606219      -34.564739      -34.529526     -0.16
        234        117.0             0.02               379.01    0.041409      -34.606370      -34.564962      -34.529527     -0.16
        235        117.5             0.02               373.21    0.040775      -34.605925      -34.565151      -34.529511     -0.09
        236        118.0             0.02               364.60    0.039835      -34.605140      -34.565306      -34.529485      0.03
        237        118.5             0.02               356.80    0.038982      -34.604423      -34.565441      -34.529461      0.14
        238        119.0             0.02               353.02    0.038569      -34.604148      -34.565579      -34.529450      0.18
        239        119.5             0.02               354.59    0.038741      -34.604479      -34.565739      -34.529457      0.15
        240        120.0             0.02               360.51    0.039387      -34.605315      -34.565927      -34.529476      0.07
        241        120.5             0.03               368.08    0.040215      -34.606355      -34.566140      -34.529498     -0.04
        242        121.0             0.02               374.22    0.040885      -34.607250      -34.566365      -34.529515     -0.11
        243        121.5             0.02               376.62    0.041148      -34.607734      -34.566586      -34.529521     -0.14
        244        122.0             0.03               374.54    0.040920      -34.607709      -34.566789      -34.529515     -0.11
        245        122.5             0.02               368.92    0.040307      -34.607273      -34.566966      -34.529499     -0.04
        246        123.0             0.02               362.10    0.039561      -34.606680      -34.567119      -34.529479      0.05
        247        123.5             0.02               356.97    0.039001      -34.606261      -34.567260      -34.529460      0.14
        248        124.0             0.02               355.97    0.038891      -34.606300      -34.567409      -34.529452      0.17
        249        124.5             0.02               360.03    0.039335      -34.606920      -34.567584      -34.529459      0.14
        250        125.0             0.02               368.11    0.040218      -34.608012      -34.567794      -34.529479      0.05
        251        125.5             0.02               377.46    0.041239      -34.609275      -34.568036      -34.529504     -0.06
        252        126.0             0.02               384.72    0.042033      -34.610326      -34.568293      -34.529523     -0.15
        253        126.5             0.02               387.36    0.042321      -34.610865      -34.568544      -34.529530     -0.18
        254        127.0             0.02               384.70    0.042030      -34.610802      -34.568771      -34.529519     -0.13
        255        127.5             0.03               378.34    0.041335      -34.610304      -34.568968      -34.529497     -0.03
        256        128.0             0.02               371.40    0.040577      -34.609722      -34.569144      -34.529473      0.08
        257        128.5             0.02               367.10    0.040107      -34.609426      -34.569318      -34.529459      0.14
        258        129.0             0.02               367.25    0.040123      -34.609631      -34.569508      -34.529460      0.14
        259        129.5             0.02               371.59    0.040598      -34.610320      -34.569722      -34.529474      0.08
        260        130.0             0.02               378.17    0.041317      -34.611277      -34.569960      -34.529493     -0.01
        261        130.5             0.02               384.31    0.041988      -34.612201      -34.570213      -34.529509     -0.08
        262        131.0             0.02               387.76    0.042365      -34.612832      -34.570467      -34.529517     -0.12
        263        131.5             0.02               387.47    0.042333      -34.613041      -34.570709      -34.529514     -0.11
        264        132.0             0.02               383.90    0.041943      -34.612874      -34.570931      -34.529502     -0.05
        265        132.5             0.02               378.95    0.041402      -34.612535      -34.571133      -34.529483      0.04
        266        133.0             0.02               375.31    0.041005      -34.612330      -34.571326      -34.529464      0.12
        267        133.5             0.02               375.53    0.041029      -34.612556      -34.571527      -34.529454      0.17
        268        134.0             0.02               380.93    0.041618      -34.613375      -34.571757      -34.529457      0.15
        269        134.5             0.02               390.92    0.042710      -34.614738      -34.572029      -34.529474      0.07
        270        135.0             0.02               403.13    0.044043      -34.616385      -34.572342      -34.529498     -0.03
        271        135.5             0.02               414.35    0.045269      -34.617952      -34.572682      -34.529519     -0.13
        272        136.0             0.02               421.91    0.046096      -34.619128      -34.573032      -34.529527     -0.17
        273        136.5             0.02               424.86    0.046418      -34.619793      -34.573374      -34.529519     -0.13
        274        137.0             0.02               424.42    0.046370      -34.620073      -34.573703      -34.529499     -0.04
        275        137.5             0.02               423.37    0.046255      -34.620281      -34.574026      -34.529477      0.06
        276        138.0             0.02               424.69    0.046399      -34.620761      -34.574362      -34.529463      0.12
        277        138.5             0.02               430.07    0.046988      -34.621715      -34.574727      -34.529464      0.12
        278        139.0             0.02               439.26    0.047991      -34.623122      -34.575131      -34.529477      0.06
        279        139.5             0.02               450.36    0.049204      -34.624773      -34.575569      -34.529495     -0.02
        280        140.0             0.02               460.86    0.050352      -34.626386      -34.576035      -34.529510     -0.09
        281        140.5             0.03               468.75    0.051213      -34.627727      -34.576514      -34.529516     -0.12
        282        141.0             0.03               473.12    0.051691      -34.628688      -34.576997      -34.529514     -0.11
        283        141.5             0.02               474.47    0.051838      -34.629313      -34.577474      -34.529503     -0.06
        284        142.0             0.03               474.50    0.051841      -34.629788      -34.577946      -34.529486      0.02
        285        142.5             0.02               475.66    0.051968      -34.630389      -34.578421      -34.529468      0.10
        286        143.0             0.02               480.46    0.052493      -34.631406      -34.578913      -34.529455      0.16
        287        143.5             0.02               490.67    0.053609      -34.633052      -34.579444      -34.529452      0.18
        288        144.0             0.02               506.65    0.055354      -34.635384      -34.580031      -34.529460      0.14
        289        144.5             0.02               527.20    0.057599      -34.638282      -34.580683      -34.529476      0.07
        290        145.0             0.02               550.14    0.060106      -34.641506      -34.581400      -34.529492     -0.00
        291        145.5             0.02               573.41    0.062648      -34.644821      -34.582173      -34.529499     -0.04
        292        146.0             0.02               596.16    0.065134      -34.648132      -34.582998      -34.529494     -0.02
        293        146.5             0.02               619.22    0.067653      -34.651533      -34.583880      -34.529482      0.04
        294        147.0             0.02               644.21    0.070383      -34.655228      -34.584845      -34.529482      0.04
        295        147.5             0.02               671.22    0.073334      -34.659260      -34.585926      -34.529524     -0.15
        296        148.0             0.02               695.52    0.075989      -34.663129      -34.587140      -34.529630     -0.64
        297        148.5             0.02               705.15    0.077041      -34.665495      -34.588454      -34.529808     -1.45
        298        149.0             0.02               681.19    0.074424      -34.664165      -34.589741      -34.530028     -2.46
        299        149.5             0.03               605.71    0.066176      -34.656854      -34.590678      -34.530108     -2.83
        300        150.0             0.02               486.73    0.053178      -34.643997      -34.590819      -34.529726     -1.08
        301        150.5             0.02               385.72    0.042142      -34.632534      -34.590392      -34.529059      1.97
        302        151.0             0.02               379.21    0.041431      -34.632065      -34.590634      -34.529079      1.88
        303        151.5             0.02               462.75    0.050557      -34.642310      -34.591752      -34.529742     -1.15
        304        152.0             0.02               556.93    0.060847      -34.653672      -34.592824      -34.530094     -2.76
        305        152.5             0.02               605.50    0.066154      -34.659759      -34.593606      -34.530020     -2.42
        306        153.0             0.02               605.01    0.066100      -34.660374      -34.594274      -34.529833     -1.57
        307        153.5             0.02               573.95    0.062706      -34.657601      -34.594894      -34.529686     -0.90
        308        154.0             0.03               529.68    0.057870      -34.653319      -34.595449      -34.529598     -0.49
        309        154.5             0.02               482.79    0.052747      -34.648670      -34.595923      -34.529560     -0.32
        310        155.0             0.02               437.84    0.047836      -34.644140      -34.596303      -34.529553     -0.29
        311        155.5             0.02               395.95    0.043260      -34.639832      -34.596572      -34.529554     -0.29
        312        156.0             0.03               357.61    0.039070      -34.635795      -34.596725      -34.529545     -0.25
        313        156.5             0.02               324.35    0.035437      -34.632212      -34.596775      -34.529527     -0.16
        314        157.0             0.02               298.73    0.032638      -34.629390      -34.596752      -34.529507     -0.08
        315        157.5             0.02               283.21    0.030942      -34.627637      -34.596694      -34.529497     -0.03
        316        158.0             0.03               278.85    0.030466      -34.627107      -34.596641      -34.529503     -0.06
        317        158.5             0.03               284.55    0.031088      -34.627707      -34.596618      -34.529523     -0.15
        318        159.0             0.02               297.27    0.032478      -34.629115      -34.596637      -34.529550     -0.27
        319        159.5             0.02               313.23    0.034222      -34.630917      -34.596694      -34.529570     -0.36
        320        160.0             0.03               329.47    0.035996      -34.632780      -34.596784      -34.529577     -0.39
        321        160.5             0.02               344.73    0.037663      -34.634565      -34.596902      -34.529569     -0.36
        322        161.0             0.02               359.54    0.039282      -34.636334      -34.597053      -34.529553     -0.29
        323        161.5             0.02               375.62    0.041039      -34.638285      -34.597247      -34.529536     -0.21
        324        162.0             0.02               394.95    0.043150      -34.640650      -34.597499      -34.529522     -0.15
        325        162.5             0.02               418.93    0.045770      -34.643600      -34.597830      -34.529520     -0.13
        326        163.0             0.02               447.64    0.048907      -34.647163      -34.598256      -34.529533     -0.19
        327        163.5             0.02               479.26    0.052361      -34.651155      -34.598794      -34.529568     -0.35
        328        164.0             0.02               509.37    0.055651      -34.655096      -34.599445      -34.529632     -0.65
        329        164.5             0.02               530.39    0.057948      -34.658136      -34.600188      -34.529731     -1.10
        330        165.0             0.02               531.47    0.058066      -34.659032      -34.600966      -34.529860     -1.69
        331        165.5             0.02               500.29    0.054659      -34.656301      -34.601642      -34.529974     -2.21
        332        166.0             0.02               431.26    0.047117      -34.649074      -34.601956      -34.529921     -1.97
        333        166.5             0.02               343.73    0.037554      -34.639260      -34.601706      -34.529548     -0.26
        334        167.0             0.03               290.34    0.031721      -34.632999      -34.601278      -34.529147      1.57
        335        167.5             0.02               316.21    0.034547      -34.636020      -34.601472      -34.529296      0.89
        336        168.0             0.02               402.36    0.043959      -34.646207      -34.602247      -34.529785     -1.35
        337        168.5             0.02               487.31    0.053241      -34.656256      -34.603016      -34.530028     -2.46
        338        169.0             0.03               531.60    0.058080      -34.661695      -34.603615      -34.529979     -2.24
        339        169.5             0.02               533.16    0.058251      -34.662378      -34.604127      -34.529838     -1.59
        340        170.0             0.02               506.56    0.055344      -34.659927      -34.604582      -34.529714     -1.02
        341        170.5             0.02               466.82    0.051003      -34.655969      -34.604967      -34.529631     -0.64
        342        171.0             0.02               424.47    0.046375      -34.651644      -34.605269      -34.529584     -0.43
        343        171.5             0.02               385.40    0.042107      -34.647595      -34.605488      -34.529565     -0.34
        344        172.0             0.02               352.07    0.038465      -34.644095      -34.605630      -34.529561     -0.32
        345        172.5             0.02               324.80    0.035486      -34.641189      -34.605703      -34.529564     -0.34
        346        173.0             0.02               302.87    0.033090      -34.638808      -34.605718      -34.529571     -0.37
        347        173.5             0.02               285.26    0.031166      -34.636847      -34.605681      -34.529576     -0.39
        348        174.0             0.02               271.24    0.029634      -34.635233      -34.605599      -34.529574     -0.38
        349        174.5             0.02               260.90    0.028505      -34.633987      -34.605482      -34.529566     -0.35
        350        175.0             0.03               255.29    0.027891      -34.633235      -34.605344      -34.529553     -0.29
        351        175.5             0.03               255.94    0.027963      -34.633172      -34.605209      -34.529543     -0.24
        352        176.0             0.03               264.13    0.028857      -34.633964      -34.605106      -34.529540     -0.23
        353        176.5             0.02               279.94    0.030585      -34.635644      -34.605059      -34.529549     -0.27
        354        177.0             0.02               302.08    0.033003      -34.638083      -34.605080      -34.529564     -0.34
        355        177.5             0.02               328.28    0.035866      -34.641041      -34.605175      -34.529580     -0.41
        356        178.0             0.02               356.27    0.038925      -34.644268      -34.605343      -34.529591     -0.46
        357        178.5             0.02               384.53    0.042011      -34.647595      -34.605584      -34.529594     -0.47
        358        179.0             0.03               412.48    0.045066      -34.650965      -34.605899      -34.529594     -0.47
        359        179.5             0.02               440.04    0.048077      -34.654375      -34.606298      -34.529601     -0.51
        360        180.0             0.03               466.32    0.050948      -34.657740      -34.606792      -34.529629     -0.63
        361        180.5             0.03               488.14    0.053332      -34.660710      -34.607378      -34.529689     -0.91
        362        181.0             0.02               498.76    0.054492      -34.662523      -34.608031      -34.529785     -1.35
        363        181.5             0.02               488.17    0.053335      -34.662004      -34.608669      -34.529895     -1.85
        364        182.0             0.03               447.43    0.048884      -34.658002      -34.609118      -34.529931     -2.02
        365        182.5             0.03               380.22    0.041541      -34.650714      -34.609173      -34.529761     -1.24
        366        183.0             0.03               315.01    0.034416      -34.643299      -34.608883      -34.529429      0.28
        367        183.5             0.02               292.84    0.031995      -34.640737      -34.608742      -34.529309      0.83
        368        184.0             0.03               326.32    0.035652      -34.644727      -34.609075      -34.529568     -0.35
        369        184.5             0.02               383.93    0.041947      -34.651544      -34.609597      -34.529855     -1.67
        370        185.0             0.02               426.49    0.046597      -34.656616      -34.610020      -34.529923     -1.98
        371        185.5             0.02               438.86    0.047948      -34.658281      -34.610333      -34.529847     -1.63
        372        186.0             0.02               426.23    0.046568      -34.657159      -34.610591      -34.529751     -1.19
        373        186.5             0.03               399.23    0.043618      -34.654420      -34.610802      -34.529684     -0.89
        374        187.0             0.03               366.12    0.040000      -34.650949      -34.610949      -34.529646     -0.71
        375        187.5             0.03               331.74    0.036244      -34.647260      -34.611016      -34.529625     -0.61
        376        188.0             0.02               298.89    0.032655      -34.643652      -34.610996      -34.529608     -0.54
        377        188.5             0.02               269.82    0.029479      -34.640373      -34.610893      -34.529589     -0.45
        378        189.0             0.03               246.89    0.026974      -34.637699      -34.610726      -34.529571     -0.37
        379        189.5             0.02               232.48    0.025400      -34.635921      -34.610521      -34.529555     -0.30
        380        190.0             0.02               228.45    0.024960      -34.635274      -34.610314      -34.529549     -0.27
        381        190.5             0.02               235.45    0.025724      -34.635863      -34.610138      -34.529553     -0.29
        382        191.0             0.02               252.56    0.027594      -34.637614      -34.610020      -34.529569     -0.36
        383        191.5             0.02               277.41    0.030308      -34.640287      -34.609979      -34.529591     -0.46
        384        192.0             0.02               306.73    0.033511      -34.643533      -34.610021      -34.529614     -0.57
        385        192.5             0.03               337.12    0.036832      -34.646978      -34.610146      -34.529634     -0.66
        386        193.0             0.02               365.78    0.039964      -34.650308      -34.610345      -34.529649     -0.73
        387        193.5             0.02               390.81    0.042698      -34.653308      -34.610610      -34.529660     -0.78
        388        194.0             0.02               410.96    0.044899      -34.655834      -34.610935      -34.529674     -0.84
        389        194.5             0.02               424.81    0.046412      -34.657722      -34.611309      -34.529699     -0.95
        390        195.0             0.02               429.82    0.046960      -34.658672      -34.611711      -34.529737     -1.13
        391        195.5             0.02               422.29    0.046137      -34.658228      -34.612091      -34.529774     -1.30
        392        196.0             0.02               399.47    0.043644      -34.656014      -34.612370      -34.529774     -1.30
        393        196.5             0.02               363.94    0.039762      -34.652238      -34.612476      -34.529702     -0.97
        394        197.0             0.02               326.76    0.035700      -34.648130      -34.612429      -34.529580     -0.41
        395        197.5             0.02               303.52    0.033161      -34.645525      -34.612364      -34.529505     -0.07
        396        198.0             0.02               303.04    0.033109      -34.645520      -34.612411      -34.529543     -0.24
        397        198.5             0.02               320.56    0.035023      -34.647586      -34.612563      -34.529638     -0.67
        398        199.0             0.02               343.63    0.037543      -34.650291      -34.612748      -34.529700     -0.96
        399        199.5             0.02               362.71    0.039628      -34.652559      -34.612931      -34.529707     -0.99
        400        200.0             0.02               375.05    0.040976      -34.654096      -34.613120      -34.529686     -0.89
        401        200.5             0.02               382.01    0.041736      -34.655065      -34.613329      -34.529666     -0.80
        402        201.0             0.02               385.52    0.042120      -34.655679      -34.613559      -34.529656     -0.76
        403        201.5             0.02               386.46    0.042223      -34.656023      -34.613800      -34.529655     -0.75
        404        202.0             0.02               384.81    0.042043      -34.656082      -34.614039      -34.529656     -0.76
        405        202.5             0.03               380.54    0.041576      -34.655836      -34.614260      -34.529651     -0.74
        406        203.0             0.02               374.38    0.040903      -34.655358      -34.614456      -34.529639     -0.68
        407        203.5             0.02               368.13    0.040220      -34.654848      -34.614629      -34.529621     -0.60
        408        204.0             0.02               364.22    0.039793      -34.654585      -34.614792      -34.529605     -0.52
        409        204.5             0.02               364.78    0.039854      -34.654821      -34.614967      -34.529598     -0.49
        410        205.0             0.02               370.67    0.040498      -34.655668      -34.615170      -34.529603     -0.52
        411        205.5             0.02               381.04    0.041631      -34.657044      -34.615413      -34.529619     -0.59
        412        206.0             0.02               393.73    0.043017      -34.658712      -34.615695      -34.529638     -0.68
        413        206.5             0.02               406.12    0.044371      -34.660380      -34.616009      -34.529655     -0.75
        414        207.0             0.02               416.04    0.045454      -34.661799      -34.616345      -34.529666     -0.80
        415        207.5             0.03               422.18    0.046125      -34.662818      -34.616693      -34.529672     -0.83
        416        208.0             0.02               424.03    0.046328      -34.663374      -34.617046      -34.529677     -0.85
        417        208.5             0.02               421.31    0.046030      -34.663427      -34.617397      -34.529688     -0.91
        418        209.0             0.02               413.21    0.045146      -34.662880      -34.617735      -34.529709     -1.00
        419        209.5             0.02               398.14    0.043499      -34.661533      -34.618034      -34.529734     -1.11
        420        210.0             0.02               374.50    0.040916      -34.659169      -34.618253      -34.529744     -1.16
        421        210.5             0.02               343.35    0.037513      -34.655851      -34.618338      -34.529707     -0.99
        422        211.0             0.02               311.63    0.034047      -34.652328      -34.618281      -34.529617     -0.58
        423        211.5             0.02               291.87    0.031888      -34.650058      -34.618170      -34.529529     -0.18
        424        212.0             0.02               294.70    0.032198      -34.650353      -34.618155      -34.529530     -0.18
        425        212.5             0.02               319.34    0.034890      -34.653191      -34.618302      -34.529622     -0.60
        426        213.0             0.02               353.53    0.038625      -34.657174      -34.618549      -34.529719     -1.05
        427        213.5             0.02               383.57    0.041907      -34.660730      -34.618823      -34.529759     -1.23
        428        214.0             0.02               402.54    0.043979      -34.663078      -34.619099      -34.529748     -1.18
        429        214.5             0.02               410.34    0.044832      -34.664212      -34.619381      -34.529720     -1.05
        430        215.0             0.02               409.80    0.044773      -34.664439      -34.619666      -34.529698     -0.95
        431        215.5             0.02               403.64    0.044099      -34.664042      -34.619943      -34.529684     -0.89
        432        216.0             0.02               393.55    0.042997      -34.663195      -34.620197      -34.529677     -0.85
        433        216.5             0.02               380.65    0.041588      -34.662004      -34.620416      -34.529670     -0.82
        434        217.0             0.02               366.03    0.039990      -34.660582      -34.620592      -34.529661     -0.78
        435        217.5             0.02               351.07    0.038356      -34.659079      -34.620724      -34.529649     -0.73
        436        218.0             0.02               337.49    0.036872      -34.657688      -34.620816      -34.529637     -0.67
        437        218.5             0.02               327.15    0.035743      -34.656622      -34.620880      -34.529624     -0.61
        438        219.0             0.02               321.84    0.035163      -34.656093      -34.620930      -34.529613     -0.56
        439        219.5             0.02               323.01    0.035290      -34.656278      -34.620988      -34.529607     -0.53
        440        220.0             0.02               331.28    0.036194      -34.657273      -34.621079      -34.529610     -0.55
        441        220.5             0.02               345.99    0.037801      -34.659024      -34.621223      -34.529625     -0.62
        442        221.0             0.02               364.90    0.039868      -34.661296      -34.621428      -34.529649     -0.73
        443        221.5             0.02               384.69    0.042030      -34.663723      -34.621693      -34.529677     -0.85
        444        222.0             0.02               401.63    0.043880      -34.665886      -34.622006      -34.529705     -0.98
        445        222.5             0.02               412.05    0.045018      -34.667370      -34.622352      -34.529737     -1.13
        446        223.0             0.02               412.22    0.045037      -34.667743      -34.622706      -34.529776     -1.31
        447        223.5             0.03               398.19    0.043504      -34.666524      -34.623020      -34.529816     -1.49
        448        224.0             0.02               367.23    0.040122      -34.663336      -34.623214      -34.529821     -1.51
        449        224.5             0.02               322.24    0.035207      -34.658405      -34.623198      -34.529743     -1.15
        450        225.0             0.02               276.53    0.030212      -34.653188      -34.622976      -34.529587     -0.44
        451        225.5             0.02               250.68    0.027389      -34.650119      -34.622730      -34.529479      0.05
        452        226.0             0.02               257.33    0.028115      -34.650786      -34.622671      -34.529540     -0.22
        453        226.5             0.03               288.46    0.031516      -34.654316      -34.622800      -34.529700     -0.96
        454        227.0             0.03               323.01    0.035290      -34.658264      -34.622974      -34.529810     -1.46
        455        227.5             0.03               344.60    0.037650      -34.660759      -34.623110      -34.529821     -1.51
        456        228.0             0.02               349.18    0.038149      -34.661351      -34.623201      -34.529775     -1.30
        457        228.5             0.02               341.09    0.037266      -34.660525      -34.623259      -34.529717     -1.04
        458        229.0             0.03               327.16    0.035744      -34.659032      -34.623288      -34.529671     -0.82
        459        229.5             0.03               313.16    0.034215      -34.657512      -34.623297      -34.529643     -0.70
        460        230.0             0.02               302.53    0.033053      -34.656349      -34.623296      -34.529634     -0.66
        461        230.5             0.03               296.13    0.032353      -34.655645      -34.623292      -34.529641     -0.69
        462        231.0             0.03               292.92    0.032002      -34.655286      -34.623284      -34.529653     -0.74
        463        231.5             0.03               291.23    0.031818      -34.655084      -34.623266      -34.529659     -0.77
        464        232.0             0.03               290.10    0.031695      -34.654929      -34.623234      -34.529655     -0.75
        465        232.5             0.03               289.93    0.031676      -34.654871      -34.623195      -34.529644     -0.70
        466        233.0             0.03               292.03    0.031905      -34.655067      -34.623162      -34.529634     -0.65
        467        233.5             0.03               297.60    0.032514      -34.655668      -34.623153      -34.529631     -0.65
        468        234.0             0.02               306.82    0.033521      -34.656702      -34.623180      -34.529640     -0.68
        469        234.5             0.03               318.52    0.034800      -34.658047      -34.623247      -34.529655     -0.75
        470        235.0             0.03               330.72    0.036133      -34.659482      -34.623349      -34.529671     -0.83
        471        235.5             0.03               341.30    0.037289      -34.660768      -34.623479      -34.529684     -0.89
        472        236.0             0.03               348.59    0.038085      -34.661710      -34.623625      -34.529695     -0.93
        473        236.5             0.02               351.42    0.038394      -34.662173      -34.623779      -34.529704     -0.98
        474        237.0             0.03               348.89    0.038118      -34.662044      -34.623926      -34.529715     -1.03
        475        237.5             0.03               340.18    0.037166      -34.661215      -34.624049      -34.529725     -1.07
        476        238.0             0.03               324.76    0.035482      -34.659603      -34.624121      -34.529728     -1.09
        477        238.5             0.02               303.43    0.033151      -34.657265      -34.624114      -34.529711     -1.01
        478        239.0             0.03               279.63    0.030551      -34.654563      -34.624012      -34.529666     -0.80
        479        239.5             0.03               259.97    0.028403      -34.652245      -34.623842      -34.529608     -0.54
        480        240.0             0.03               252.07    0.027540      -34.651213      -34.623673      -34.529573     -0.38
        481        240.5             0.03               259.94    0.028399      -34.651980      -34.623581      -34.529594     -0.47
        482        241.0             0.03               280.52    0.030648      -34.654235      -34.623588      -34.529655     -0.75
        483        241.5             0.02               305.49    0.033376      -34.657035      -34.623659      -34.529711     -1.01
        484        242.0             0.02               326.88    0.035713      -34.659469      -34.623756      -34.529732     -1.11
        485        242.5             0.02               341.03    0.037259      -34.661120      -34.623861      -34.529722     -1.06
        486        243.0             0.02               348.44    0.038069      -34.662044      -34.623976      -34.529702     -0.97
        487        243.5             0.02               351.33    0.038384      -34.662488      -34.624104      -34.529686     -0.89
        488        244.0             0.02               351.64    0.038418      -34.662659      -34.624241      -34.529678     -0.86
        489        244.5             0.02               350.38    0.038281      -34.662660      -34.624379      -34.529676     -0.85
        490        245.0             0.02               347.97    0.038017      -34.662528      -34.624512      -34.529674     -0.84
        491        245.5             0.02               344.78    0.037669      -34.662302      -34.624633      -34.529670     -0.82
        492        246.0             0.02               341.48    0.037308      -34.662053      -34.624744      -34.529665     -0.80
        493        246.5             0.03               338.82    0.037017      -34.661867      -34.624850      -34.529661     -0.78
        494        247.0             0.02               337.40    0.036863      -34.661816      -34.624954      -34.529660     -0.78
        495        247.5             0.02               337.48    0.036872      -34.661931      -34.625060      -34.529661     -0.78
        496        248.0             0.02               339.08    0.037047      -34.662217      -34.625170      -34.529662     -0.79
        497        248.5             0.02               342.17    0.037384      -34.662673      -34.625289      -34.529663     -0.79
        498        249.0             0.02               346.58    0.037866      -34.663291      -34.625425      -34.529669     -0.81
        499        249.5             0.02               351.51    0.038405      -34.663989      -34.625585      -34.529684     -0.89
        500        250.0             0.02               354.86    0.038771      -34.664537      -34.625767      -34.529712     -1.01
        501        250.5             0.02               353.18    0.038587      -34.664536      -34.625949      -34.529746     -1.17
        502        251.0             0.02               342.65    0.037436      -34.663530      -34.626094      -34.529771     -1.28
        503        251.5             0.02               321.01    0.035072      -34.661224      -34.626152      -34.529771     -1.28
        504        252.0             0.02               289.84    0.031666      -34.657748      -34.626082      -34.529729     -1.09
        505        252.5             0.02               256.17    0.027988      -34.653865      -34.625877      -34.529646     -0.71
        506        253.0             0.02               231.53    0.025296      -34.650897      -34.625602      -34.529563     -0.33
        507        253.5             0.02               226.38    0.024733      -34.650109      -34.625376      -34.529543     -0.24
        508        254.0             0.02               242.67    0.026513      -34.651793      -34.625280      -34.529608     -0.54
        509        254.5             0.02               271.76    0.029692      -34.654987      -34.625295      -34.529702     -0.97
        510        255.0             0.03               300.80    0.032864      -34.658222      -34.625358      -34.529763     -1.25
        511        255.5             0.02               320.77    0.035046      -34.660472      -34.625426      -34.529773     -1.29
        512        256.0             0.02               329.27    0.035974      -34.661461      -34.625487      -34.529752     -1.20
        513        256.5             0.02               328.28    0.035867      -34.661406      -34.625539      -34.529725     -1.07
        514        257.0             0.02               321.19    0.035092      -34.660668      -34.625576      -34.529703     -0.97
        515        257.5             0.02               310.90    0.033967      -34.659559      -34.625592      -34.529688     -0.90
        516        258.0             0.02               299.50    0.032722      -34.658301      -34.625579      -34.529676     -0.85
        517        258.5             0.02               288.66    0.031538      -34.657074      -34.625536      -34.529665     -0.80
        518        259.0             0.02               280.01    0.030592      -34.656060      -34.625468      -34.529652     -0.74
        519        259.5             0.03               275.10    0.030056      -34.655445      -34.625388      -34.529643     -0.70
        520        260.0             0.02               275.13    0.030059      -34.655373      -34.625314      -34.529638     -0.68
        521        260.5             0.02               280.58    0.030655      -34.655915      -34.625260      -34.529638     -0.68
        522        261.0             0.02               291.26    0.031821      -34.657061      -34.625240      -34.529643     -0.70
        523        261.5             0.02               306.23    0.033458      -34.658726      -34.625269      -34.529655     -0.75
        524        262.0             0.02               323.62    0.035357      -34.660715      -34.625358      -34.529678     -0.86
        525        262.5             0.02               340.07    0.037154      -34.662663      -34.625509      -34.529717     -1.03
        526        263.0             0.02               350.51    0.038295      -34.663998      -34.625703      -34.529769     -1.28
        527        263.5             0.02               348.65    0.038092      -34.663986      -34.625894      -34.529824     -1.53
        528        264.0             0.02               328.91    0.035935      -34.661938      -34.626003      -34.529852     -1.65
        529        264.5             0.02               290.53    0.031742      -34.657672      -34.625930      -34.529805     -1.44
        530        265.0             0.02               242.92    0.026540      -34.652165      -34.625625      -34.529660     -0.78
        531        265.5             0.02               206.34    0.022544      -34.647746      -34.625202      -34.529500     -0.04
        532        266.0             0.02               200.63    0.021920      -34.646820      -34.624900      -34.529476      0.07
        533        266.5             0.02               228.06    0.024917      -34.649753      -34.624836      -34.529613     -0.56
        534        267.0             0.02               270.91    0.029598      -34.654508      -34.624910      -34.529769     -1.27
        535        267.5             0.02               307.50    0.033596      -34.658593      -34.624997      -34.529835     -1.58
        536        268.0             0.02               326.47    0.035668      -34.660725      -34.625056      -34.529820     -1.51
        537        268.5             0.02               327.69    0.035802      -34.660886      -34.625083      -34.529770     -1.28
        538        269.0             0.02               317.00    0.034634      -34.659708      -34.625075      -34.529713     -1.02
        539        269.5             0.02               301.75    0.032968      -34.657997      -34.625029      -34.529663     -0.79
        540        270.0             0.02               288.71    0.031543      -34.656502      -34.624959      -34.529624     -0.61
        541        270.5             0.03               282.99    0.030918      -34.655808      -34.624890      -34.529603     -0.51
        542        271.0             0.02               287.30    0.031389      -34.656242      -34.624853      -34.529602     -0.51
        543        271.5             0.02               301.49    0.032940      -34.657815      -34.624875      -34.529620     -0.59
        544        272.0             0.02               322.92    0.035281      -34.660249      -34.624968      -34.529648     -0.72
        545        272.5             0.03               347.48    0.037964      -34.663095      -34.625131      -34.529678     -0.86
        546        273.0             0.02               370.99    0.040533      -34.665887      -34.625355      -34.529703     -0.97
        547        273.5             0.02               390.11    0.042621      -34.668247      -34.625626      -34.529721     -1.06
        548        274.0             0.02               402.46    0.043971      -34.669900      -34.625929      -34.529738     -1.13
        549        274.5             0.03               406.17    0.044376      -34.670622      -34.626246      -34.529757     -1.22
        550        275.0             0.02               399.45    0.043642      -34.670185      -34.626543      -34.529775     -1.30
        551        275.5             0.02               381.10    0.041637      -34.668410      -34.626773      -34.529778     -1.32
        552        276.0             0.02               352.37    0.038498      -34.665384      -34.626886      -34.529744     -1.16
        553        276.5             0.02               319.18    0.034872      -34.661738      -34.626866      -34.529671     -0.82
        554        277.0             0.02               291.61    0.031860      -34.658631      -34.626770      -34.529599     -0.50
        555        277.5             0.02               278.49    0.030427      -34.657127      -34.626701      -34.529589     -0.45
        556        278.0             0.02               280.64    0.030662      -34.657367      -34.626705      -34.529648     -0.72
        557        278.5             0.02               290.42    0.031730      -34.658478      -34.626748      -34.529718     -1.04
        558        279.0             0.02               298.44    0.032606      -34.659377      -34.626771      -34.529745     -1.17
        559        279.5             0.02               300.22    0.032800      -34.659553      -34.626753      -34.529727     -1.08
        560        280.0             0.02               297.11    0.032461      -34.659169      -34.626708      -34.529689     -0.91
        561        280.5             0.02               293.25    0.032039      -34.658699      -34.626660      -34.529661     -0.78
        562        281.0             0.02               291.95    0.031897      -34.658526      -34.626630      -34.529653     -0.74
        563        281.5             0.02               293.99    0.032120      -34.658743      -34.626622      -34.529662     -0.79
        564        282.0             0.02               298.01    0.032559      -34.659190      -34.626631      -34.529677     -0.85
        565        282.5             0.02               302.02    0.032997      -34.659641      -34.626644      -34.529684     -0.88
        566        283.0             0.02               305.07    0.033330      -34.659982      -34.626652      -34.529678     -0.86
        567        283.5             0.02               307.82    0.033631      -34.660290      -34.626659      -34.529663     -0.79
        568        284.0             0.02               312.21    0.034111      -34.660788      -34.626677      -34.529647     -0.72
        569        284.5             0.02               320.35    0.035000      -34.661725      -34.626725      -34.529638     -0.67
        570        285.0             0.02               333.37    0.036423      -34.663245      -34.626823      -34.529642     -0.69
        571        285.5             0.03               350.57    0.038301      -34.665286      -34.626985      -34.529662     -0.79
        572        286.0             0.02               369.08    0.040323      -34.667538      -34.627215      -34.529699     -0.95
        573        286.5             0.02               384.08    0.041963      -34.669461      -34.627498      -34.529747     -1.17
        574        287.0             0.02               389.66    0.042573      -34.670369      -34.627797      -34.529794     -1.39
        575        287.5             0.02               380.59    0.041581      -34.669629      -34.628048      -34.529820     -1.51
        576        288.0             0.03               355.13    0.038800      -34.666980      -34.628180      -34.529797     -1.40
        577        288.5             0.04               318.18    0.034762      -34.662911      -34.628149      -34.529715     -1.03
        578        289.0             0.03               281.55    0.030761      -34.658754      -34.627993      -34.529611     -0.55
        579        289.5             0.03               258.69    0.028263      -34.656090      -34.627827      -34.529560     -0.32
        580        290.0             0.03               255.72    0.027939      -34.655681      -34.627742      -34.529599     -0.50
        581        290.5             0.03               267.35    0.029210      -34.656946      -34.627737      -34.529686     -0.89
        582        291.0             0.03               281.90    0.030799      -34.658552      -34.627753      -34.529753     -1.20
        583        291.5             0.02               289.41    0.031619      -34.659365      -34.627746      -34.529775     -1.30
        584        292.0             0.02               285.85    0.031231      -34.658921      -34.627690      -34.529759     -1.23
        585        292.5             0.03               272.62    0.029785      -34.657362      -34.627577      -34.529723     -1.06
        586        293.0             0.02               254.29    0.027783      -34.655189      -34.627406      -34.529680     -0.87
        587        293.5             0.02               236.55    0.025844      -34.653034      -34.627190      -34.529642     -0.69
        588        294.0             0.03               224.52    0.024529      -34.651481      -34.626952      -34.529615     -0.57
        589        294.5             0.03               221.80    0.024233      -34.650953      -34.626720      -34.529602     -0.51
        590        295.0             0.02               229.96    0.025125      -34.651651      -34.626526      -34.529604     -0.52
        591        295.5             0.03               248.47    0.027147      -34.653543      -34.626397      -34.529619     -0.59
        592        296.0             0.03               274.97    0.030041      -34.656393      -34.626351      -34.529644     -0.70
        593        296.5             0.03               305.73    0.033402      -34.659801      -34.626399      -34.529676     -0.85
        594        297.0             0.03               336.19    0.036731      -34.663266      -34.626536      -34.529711     -1.01
        595        297.5             0.03               361.55    0.039501      -34.666243      -34.626742      -34.529745     -1.16
        596        298.0             0.02               377.47    0.041240      -34.668225      -34.626985      -34.529771     -1.28
        597        298.5             0.03               381.13    0.041640      -34.668860      -34.627220      -34.529779     -1.32
        598        299.0             0.03               372.44    0.040691      -34.668093      -34.627402      -34.529758     -1.22
        599        299.5             0.02               355.06    0.038792      -34.666299      -34.627507      -34.529709     -1.00
        600        300.0             0.02               335.87    0.036695      -34.664248      -34.627553      -34.529654     -0.75
        601        300.5             0.02               321.81    0.035160      -34.662752      -34.627593      -34.529632     -0.65
        602        301.0             0.03               315.40    0.034459      -34.662123      -34.627664      -34.529661     -0.78
        603        301.5             0.03               312.96    0.034192      -34.661945      -34.627753      -34.529713     -1.02
        604        302.0             0.02               307.87    0.033637      -34.661445      -34.627809      -34.529747     -1.17
        605        302.5             0.02               295.57    0.032293      -34.660088      -34.627795      -34.529746     -1.17
        606        303.0             0.02               275.87    0.030140      -34.657841      -34.627700      -34.529718     -1.04
        607        303.5             0.02               252.08    0.027541      -34.655071      -34.627530      -34.529683     -0.88
        608        304.0             0.02               228.81    0.024999      -34.652298      -34.627299      -34.529651     -0.73
        609        304.5             0.02               210.16    0.022961      -34.649987      -34.627026      -34.529630     -0.64
        610        305.0             0.02               198.90    0.021731      -34.648463      -34.626733      -34.529620     -0.59
        611        305.5             0.02               196.28    0.021444      -34.647885      -34.626441      -34.529619     -0.59
        612        306.0             0.02               202.24    0.022095      -34.648269      -34.626173      -34.529625     -0.61
        613        306.5             0.02               215.75    0.023571      -34.649519      -34.625948      -34.529635     -0.66
        614        307.0             0.02               235.08    0.025684      -34.651464      -34.625781      -34.529650     -0.73
        615        307.5             0.02               257.98    0.028186      -34.653868      -34.625682      -34.529669     -0.82
        616        308.0             0.02               281.63    0.030769      -34.656425      -34.625656      -34.529694     -0.93
        617        308.5             0.02               302.54    0.033054      -34.658748      -34.625694      -34.529725     -1.07
        618        309.0             0.03               316.91    0.034624      -34.660393      -34.625768      -34.529752     -1.20
        619        309.5             0.02               321.93    0.035172      -34.661008      -34.625836      -34.529758     -1.22
        620        310.0             0.02               317.88    0.034730      -34.660585      -34.625855      -34.529727     -1.08
        621        310.5             0.02               309.58    0.033823      -34.659649      -34.625825      -34.529671     -0.82
        622        311.0             0.02               304.48    0.033266      -34.659064      -34.625798      -34.529631     -0.64
        623        311.5             0.02               307.43    0.033589      -34.659420      -34.625831      -34.529643     -0.70
        624        312.0             0.02               316.75    0.034607      -34.660537      -34.625930      -34.529695     -0.94
        625        312.5             0.02               325.79    0.035594      -34.661643      -34.626049      -34.529742     -1.15
        626        313.0             0.02               328.18    0.035856      -34.661999      -34.626144      -34.529758     -1.22
        627        313.5             0.02               321.44    0.035119      -34.661309      -34.626190      -34.529744     -1.16
        628        314.0             0.02               306.93    0.033534      -34.659717      -34.626183      -34.529718     -1.04
        629        314.5             0.02               288.03    0.031469      -34.657591      -34.626122      -34.529690     -0.91
        630        315.0             0.02               268.42    0.029326      -34.655336      -34.626010      -34.529667     -0.81
        631        315.5             0.04               251.17    0.027442      -34.653298      -34.625857      -34.529650     -0.73
        632        316.0             0.02               238.55    0.026063      -34.651736      -34.625673      -34.529638     -0.68
        633        316.5             0.02               232.04    0.025352      -34.650828      -34.625476      -34.529632     -0.65
        634        317.0             0.02               232.38    0.025388      -34.650674      -34.625285      -34.529631     -0.64
        635        317.5             0.02               239.40    0.026155      -34.651279      -34.625124      -34.529639     -0.68
        636        318.0             0.02               251.66    0.027495      -34.652505      -34.625009      -34.529660     -0.77
        637        318.5             0.02               266.05    0.029067      -34.654016      -34.624949      -34.529694     -0.93
        638        319.0             0.02               277.97    0.030370      -34.655295      -34.624925      -34.529733     -1.11
        639        319.5             0.02               282.81    0.030899      -34.655797      -34.624899      -34.529754     -1.21
        640        320.0             0.02               278.65    0.030444      -34.655265      -34.624820      -34.529736     -1.12
        641        320.5             0.02               268.95    0.029384      -34.654054      -34.624671      -34.529673     -0.83
        642        321.0             0.02               262.22    0.028649      -34.653145      -34.624496      -34.529604     -0.52
        643        321.5             0.02               267.07    0.029178      -34.653565      -34.624386      -34.529587     -0.44
        644        322.0             0.02               285.37    0.031178      -34.655574      -34.624395      -34.529637     -0.67
        645        322.5             0.02               310.66    0.033941      -34.658440      -34.624499      -34.529711     -1.01
        646        323.0             0.02               333.09    0.036392      -34.661034      -34.624642      -34.529761     -1.24
        647        323.5             0.02               345.63    0.037762      -34.662543      -34.624782      -34.529772     -1.29
        648        324.0             0.02               346.19    0.037823      -34.662719      -34.624896      -34.529758     -1.22
        649        324.5             0.02               336.47    0.036761      -34.661734      -34.624973      -34.529732     -1.11
        650        325.0             0.03               319.94    0.034955      -34.659956      -34.625001      -34.529704     -0.98
        651        325.5             0.02               300.49    0.032830      -34.657806      -34.624976      -34.529678     -0.86
        652        326.0             0.03               281.84    0.030792      -34.655694      -34.624902      -34.529654     -0.75
        653        326.5             0.02               267.21    0.029194      -34.653985      -34.624791      -34.529636     -0.67
        654        327.0             0.02               259.03    0.028300      -34.652967      -34.624667      -34.529626     -0.62
        655        327.5             0.03               258.36    0.028228      -34.652782      -34.624554      -34.529630     -0.64
        656        328.0             0.02               264.33    0.028879      -34.653354      -34.624475      -34.529651     -0.74
        657        328.5             0.02               273.80    0.029914      -34.654351      -34.624437      -34.529687     -0.90
        658        329.0             0.02               281.89    0.030798      -34.655226      -34.624428      -34.529728     -1.09
        659        329.5             0.03               283.23    0.030944      -34.655359      -34.624415      -34.529762     -1.24
        660        330.0             0.02               273.87    0.029922      -34.654274      -34.624352      -34.529772     -1.29
        661        330.5             0.02               253.72    0.027720      -34.651910      -34.624190      -34.529740     -1.14
        662        331.0             0.02               228.41    0.024955      -34.648866      -34.623911      -34.529662     -0.78
        663        331.5             0.02               209.06    0.022840      -34.646406      -34.623565      -34.529571     -0.37
        664        332.0             0.02               207.37    0.022656      -34.645924      -34.623267      -34.529532     -0.19
        665        332.5             0.02               227.81    0.024890      -34.648004      -34.623114      -34.529581     -0.42
        666        333.0             0.02               263.58    0.028797      -34.651908      -34.623110      -34.529680     -0.87
        667        333.5             0.02               301.26    0.032914      -34.656109      -34.623194      -34.529760     -1.23
        668        334.0             0.02               329.31    0.035979      -34.659285      -34.623307      -34.529790     -1.37
        669        334.5             0.02               342.70    0.037442      -34.660856      -34.623414      -34.529778     -1.32
        670        335.0             0.03               342.52    0.037422      -34.660920      -34.623498      -34.529743     -1.16
        671        335.5             0.02               333.42    0.036428      -34.659976      -34.623548      -34.529700     -0.96
        672        336.0             0.02               321.42    0.035117      -34.658683      -34.623566      -34.529657     -0.76
        673        336.5             0.02               312.36    0.034126      -34.657694      -34.623568      -34.529624     -0.61
        674        337.0             0.02               310.69    0.033945      -34.657525      -34.623581      -34.529607     -0.53
        675        337.5             0.02               318.55    0.034803      -34.658440      -34.623637      -34.529611     -0.55
        676        338.0             0.02               335.06    0.036607      -34.660367      -34.623760      -34.529637     -0.67
        677        338.5             0.02               356.51    0.038950      -34.662908      -34.623958      -34.529676     -0.85
        678        339.0             0.02               377.30    0.041222      -34.665442      -34.624220      -34.529721     -1.06
        679        339.5             0.02               391.34    0.042756      -34.667274      -34.624518      -34.529764     -1.25
        680        340.0             0.03               393.37    0.042977      -34.667787      -34.624810      -34.529794     -1.39
        681        340.5             0.02               380.35    0.041555      -34.666595      -34.625040      -34.529799     -1.41
        682        341.0             0.02               353.23    0.038592      -34.663744      -34.625152      -34.529762     -1.24
        683        341.5             0.02               318.85    0.034836      -34.659954      -34.625118      -34.529676     -0.85
        684        342.0             0.02               289.78    0.031660      -34.656650      -34.624990      -34.529576     -0.39
        685        342.5             0.02               278.79    0.030459      -34.655355      -34.624896      -34.529541     -0.23
        686        343.0             0.02               289.75    0.031656      -34.656588      -34.624932      -34.529606     -0.53
        687        343.5             0.02               313.90    0.034295      -34.659374      -34.625079      -34.529714     -1.02
        688        344.0             0.02               336.68    0.036784      -34.662037      -34.625254      -34.529786     -1.35
        689        344.5             0.02               347.69    0.037987      -34.663382      -34.625395      -34.529794     -1.39
        690        345.0             0.02               344.89    0.037681      -34.663165      -34.625483      -34.529756     -1.22
        691        345.5             0.02               332.75    0.036355      -34.661875      -34.625520      -34.529701     -0.96
        692        346.0             0.02               318.56    0.034805      -34.660324      -34.625520      -34.529649     -0.72
        693        346.5             0.02               309.33    0.033795      -34.659306      -34.625510      -34.529613     -0.56
        694        347.0             0.02               309.72    0.033839      -34.659365      -34.625526      -34.529602     -0.51
        695        347.5             0.02               321.18    0.035090      -34.660686      -34.625596      -34.529613     -0.56
        696        348.0             0.02               341.97    0.037362      -34.663103      -34.625740      -34.529639     -0.68
        697        348.5             0.02               368.24    0.040232      -34.666196      -34.625965      -34.529672     -0.83
        698        349.0             0.02               395.19    0.043177      -34.669442      -34.626265      -34.529706     -0.99
        699        349.5             0.02               418.16    0.045686      -34.672313      -34.626627      -34.529737     -1.13
        700        350.0             0.02               433.03    0.047310      -34.674337      -34.627027      -34.529764     -1.25
        701        350.5             0.02               436.63    0.047704      -34.675133      -34.627429      -34.529783     -1.34
        702        351.0             0.02               427.45    0.046701      -34.674486      -34.627784      -34.529782     -1.33
        703        351.5             0.02               407.00    0.044467      -34.672516      -34.628049      -34.529747     -1.17
        704        352.0             0.02               381.10    0.041637      -34.669848      -34.628211      -34.529682     -0.87
        705        352.5             0.02               358.86    0.039207      -34.667523      -34.628316      -34.529621     -0.60
        706        353.0             0.02               347.86    0.038006      -34.666449      -34.628443      -34.529615     -0.57
        707        353.5             0.02               348.65    0.038092      -34.666724      -34.628632      -34.529667     -0.81
        708        354.0             0.02               354.40    0.038720      -34.667568      -34.628848      -34.529731     -1.10
        709        354.5             0.02               356.57    0.038957      -34.667993      -34.629036      -34.529760     -1.23
        710        355.0             0.02               350.73    0.038319      -34.667484      -34.629165      -34.529747     -1.18
        711        355.5             0.02               337.95    0.036923      -34.666158      -34.629235      -34.529711     -1.01
        712        356.0             0.02               322.65    0.035251      -34.664512      -34.629261      -34.529674     -0.84
        713        356.5             0.02               309.61    0.033827      -34.663090      -34.629263      -34.529649     -0.72
        714        357.0             0.02               302.18    0.033014      -34.662273      -34.629258      -34.529638     -0.67
        715        357.5             0.02               301.80    0.032973      -34.662235      -34.629262      -34.529636     -0.67
        716        358.0             0.02               308.59    0.033714      -34.663003      -34.629289      -34.529639     -0.68
        717        358.5             0.02               321.94    0.035174      -34.664530      -34.629356      -34.529645     -0.71
        718        359.0             0.02               340.90    0.037245      -34.666725      -34.629480      -34.529655     -0.75
        719        359.5             0.02               363.82    0.039749      -34.669426      -34.629677      -34.529673     -0.84
        720        360.0             0.02               388.03    0.042394      -34.672347      -34.629953      -34.529702     -0.97
        721        360.5             0.03               409.68    0.044760      -34.675056      -34.630296      -34.529738     -1.13
        722        361.0             0.02               424.37    0.046364      -34.677040      -34.630676      -34.529769     -1.28
        723        361.5             0.02               428.75    0.046843      -34.677889      -34.631046      -34.529779     -1.32
        724        362.0             0.02               422.79    0.046192      -34.677554      -34.631362      -34.529751     -1.19
        725        362.5             0.02               411.21    0.044926      -34.676542      -34.631616      -34.529693     -0.93
        726        363.0             0.02               401.80    0.043899      -34.675754      -34.631855      -34.529647     -0.72
        727        363.5             0.03               400.28    0.043733      -34.675875      -34.632143      -34.529654     -0.75
        728        364.0             0.02               405.69    0.044324      -34.676814      -34.632490      -34.529705     -0.98
        729        364.5             0.02               411.55    0.044964      -34.677815      -34.632851      -34.529753     -1.20
        730        365.0             0.02               411.33    0.044940      -34.678118      -34.633178      -34.529769     -1.27
        731        365.5             0.02               402.52    0.043977      -34.677429      -34.633452      -34.529755     -1.21
        732        366.0             0.03               386.53    0.042230      -34.675900      -34.633670      -34.529731     -1.10
        733        366.5             0.02               366.50    0.040042      -34.673875      -34.633833      -34.529708     -0.99
        734        367.0             0.02               345.61    0.037759      -34.671701      -34.633941      -34.529688     -0.91
        735        367.5             0.02               326.63    0.035686      -34.669684      -34.633998      -34.529670     -0.82
        736        368.0             0.03               312.14    0.034103      -34.668116      -34.634014      -34.529652     -0.74
        737        368.5             0.03               304.55    0.033274      -34.667286      -34.634012      -34.529638     -0.67
        738        369.0             0.02               305.62    0.033390      -34.667414      -34.634024      -34.529634     -0.66
        739        369.5             0.03               315.56    0.034476      -34.668556      -34.634080      -34.529646     -0.71
        740        370.0             0.02               332.37    0.036313      -34.670514      -34.634201      -34.529676     -0.85
        741        370.5             0.02               351.88    0.038444      -34.672831      -34.634386      -34.529716     -1.03
        742        371.0             0.02               368.85    0.040298      -34.674913      -34.634615      -34.529752     -1.20
        743        371.5             0.02               379.07    0.041415      -34.676263      -34.634848      -34.529764     -1.25
        744        372.0             0.02               381.80    0.041714      -34.676765      -34.635052      -34.529738     -1.13
        745        372.5             0.02               381.03    0.041629      -34.676856      -34.635226      -34.529686     -0.89
        746        373.0             0.02               383.72    0.041923      -34.677343      -34.635420      -34.529645     -0.71
        747        373.5             0.02               394.94    0.043149      -34.678841      -34.635692      -34.529651     -0.74
        748        374.0             0.02               413.71    0.045199      -34.681258      -34.636059      -34.529699     -0.96
        749        374.5             0.03               433.83    0.047398      -34.683882      -34.636484      -34.529750     -1.19
        750        375.0             0.02               448.55    0.049006      -34.685932      -34.636925      -34.529775     -1.30
        751        375.5             0.02               454.24    0.049628      -34.686984      -34.637356      -34.529774     -1.30
        752        376.0             0.02               450.74    0.049246      -34.687010      -34.637764      -34.529759     -1.23
        753        376.5             0.02               439.99    0.048071      -34.686209      -34.638138      -34.529741     -1.14
        754        377.0             0.02               424.70    0.046400      -34.684868      -34.638467      -34.529721     -1.06
        755        377.5             0.02               407.74    0.044548      -34.683297      -34.638750      -34.529702     -0.97
        756        378.0             0.02               391.95    0.042822      -34.681811      -34.638989      -34.529683     -0.88
        757        378.5             0.02               379.85    0.041501      -34.680699      -34.639199      -34.529669     -0.82
        758        379.0             0.02               373.32    0.040787      -34.680185      -34.639398      -34.529663     -0.79
        759        379.5             0.02               372.99    0.040752      -34.680359      -34.639608      -34.529668     -0.81
        760        380.0             0.02               377.97    0.041295      -34.681139      -34.639844      -34.529687     -0.90
        761        380.5             0.02               385.67    0.042136      -34.682249      -34.640113      -34.529715     -1.03
        762        381.0             0.02               392.32    0.042863      -34.683266      -34.640403      -34.529747     -1.17
        763        381.5             0.02               394.12    0.043060      -34.683748      -34.640688      -34.529768     -1.27
        764        382.0             0.02               389.01    0.042501      -34.683434      -34.640933      -34.529763     -1.25
        765        382.5             0.02               378.60    0.041364      -34.682478      -34.641114      -34.529725     -1.07
        766        383.0             0.03               368.70    0.040282      -34.681532      -34.641251      -34.529669     -0.81
        767        383.5             0.02               366.68    0.040062      -34.681466      -34.641404      -34.529635     -0.66
        768        384.0             0.02               376.58    0.041143      -34.682778      -34.641636      -34.529652     -0.74
        769        384.5             0.02               395.88    0.043252      -34.685210      -34.641958      -34.529706     -0.99
        770        385.0             0.02               417.39    0.045602      -34.687941      -34.642339      -34.529758     -1.22
        771        385.5             0.02               433.92    0.047408      -34.690148      -34.642740      -34.529784     -1.34
        772        386.0             0.02               441.59    0.048246      -34.691381      -34.643136      -34.529783     -1.34
        773        386.5             0.02               440.23    0.048097      -34.691609      -34.643512      -34.529766     -1.26
        774        387.0             0.02               432.11    0.047210      -34.691068      -34.643859      -34.529743     -1.16
        775        387.5             0.02               420.49    0.045941      -34.690114      -34.644173      -34.529720     -1.05
        776        388.0             0.02               408.67    0.044649      -34.689108      -34.644459      -34.529701     -0.96
        777        388.5             0.02               399.36    0.043632      -34.688356      -34.644724      -34.529688     -0.90
        778        389.0             0.02               394.40    0.043091      -34.688073      -34.644983      -34.529682     -0.88
        779        389.5             0.02               394.47    0.043098      -34.688349      -34.645251      -34.529687     -0.90
        780        390.0             0.02               398.76    0.043567      -34.689112      -34.645545      -34.529703     -0.97
        781        390.5             0.02               404.84    0.044230      -34.690098      -34.645867      -34.529732     -1.11
        782        391.0             0.02               408.78    0.044661      -34.690868      -34.646207      -34.529767     -1.26
        783        391.5             0.03               406.28    0.044389      -34.690919      -34.646531      -34.529793     -1.39
        784        392.0             0.02               394.62    0.043114      -34.689908      -34.646795      -34.529792     -1.38
        785        392.5             0.02               374.98    0.040969      -34.687932      -34.646964      -34.529751     -1.19
        786        393.0             0.02               353.59    0.038632      -34.685678      -34.647046      -34.529683     -0.88
        787        393.5             0.02               339.40    0.037081      -34.684187      -34.647106      -34.529632     -0.65
        788        394.0             0.02               338.71    0.037006      -34.684224      -34.647218      -34.529636     -0.67
        789        394.5             0.02               350.75    0.038321      -34.685734      -34.647412      -34.529688     -0.91
        790        395.0             0.02               368.53    0.040264      -34.687927      -34.647663      -34.529747     -1.17
        791        395.5             0.02               384.06    0.041961      -34.689890      -34.647930      -34.529778     -1.32
        792        396.0             0.02               392.73    0.042908      -34.691096      -34.648188      -34.529777     -1.31
        793        396.5             0.02               394.32    0.043081      -34.691513      -34.648431      -34.529756     -1.21
        794        397.0             0.02               391.51    0.042775      -34.691436      -34.648661      -34.529729     -1.09
        795        397.5             0.02               387.96    0.042387      -34.691271      -34.648884      -34.529706     -0.99
        796        398.0             0.02               386.87    0.042268      -34.691381      -34.649113      -34.529691     -0.92
        797        398.5             0.02               390.30    0.042642      -34.692002      -34.649361      -34.529686     -0.89
        798        399.0             0.02               398.94    0.043586      -34.693228      -34.649641      -34.529690     -0.91
        799        399.5             0.02               412.15    0.045030      -34.694998      -34.649968      -34.529702     -0.97
        800        400.0             0.02               427.98    0.046759      -34.697108      -34.650349      -34.529724     -1.07
        801        400.5             0.02               443.28    0.048431      -34.699209      -34.650779      -34.529753     -1.20
        802        401.0             0.02               454.15    0.049618      -34.700858      -34.651240      -34.529782     -1.34
        803        401.5             0.02               456.88    0.049917      -34.701616      -34.651699      -34.529802     -1.43
        804        402.0             0.02               449.44    0.049104      -34.701220      -34.652116      -34.529800     -1.42
        805        402.5             0.02               432.87    0.047293      -34.699751      -34.652459      -34.529771     -1.28
        806        403.0             0.02               411.82    0.044993      -34.697716      -34.652722      -34.529721     -1.06
        807        403.5             0.02               393.15    0.042954      -34.695894      -34.652940      -34.529678     -0.86
        808        404.0             0.02               382.47    0.041787      -34.694949      -34.653162      -34.529669     -0.82
        809        404.5             0.02               380.82    0.041606      -34.695023      -34.653417      -34.529697     -0.95
        810        405.0             0.02               384.37    0.041994      -34.695689      -34.653695      -34.529739     -1.14
        811        405.5             0.02               387.53    0.042340      -34.696307      -34.653967      -34.529766     -1.26
        812        406.0             0.02               386.58    0.042236      -34.696446      -34.654211      -34.529767     -1.26
        813        406.5             0.02               381.07    0.041634      -34.696054      -34.654421      -34.529750     -1.19
        814        407.0             0.02               373.09    0.040762      -34.695365      -34.654603      -34.529727     -1.08
        815        407.5             0.02               365.58    0.039941      -34.694710      -34.654769      -34.529709     -1.00
        816        408.0             0.02               360.98    0.039439      -34.694369      -34.654930      -34.529699     -0.96
        817        408.5             0.02               360.64    0.039402      -34.694500      -34.655098      -34.529698     -0.95
        818        409.0             0.02               364.78    0.039854      -34.695137      -34.655283      -34.529701     -0.97
        819        409.5             0.02               372.76    0.040726      -34.696221      -34.655495      -34.529710     -1.00
        820        410.0             0.03               383.31    0.041878      -34.697618      -34.655740      -34.529721     -1.06
        821        410.5             0.02               394.66    0.043119      -34.699140      -34.656021      -34.529737     -1.13
        822        411.0             0.02               404.63    0.044208      -34.700541      -34.656333      -34.529756     -1.21
        823        411.5             0.02               410.82    0.044884      -34.701545      -34.656661      -34.529773     -1.29
        824        412.0             0.02               411.25    0.044932      -34.701912      -34.656981      -34.529781     -1.33
        825        412.5             0.02               405.39    0.044290      -34.701558      -34.657267      -34.529773     -1.29
        826        413.0             0.02               394.98    0.043154      -34.700660      -34.657506      -34.529746     -1.17
        827        413.5             0.02               383.98    0.041952      -34.699661      -34.657709      -34.529713     -1.02
        828        414.0             0.02               376.59    0.041145      -34.699054      -34.657910      -34.529699     -0.96
        829        414.5             0.02               374.54    0.040921      -34.699054      -34.658133      -34.529714     -1.02
        830        415.0             0.02               375.86    0.041064      -34.699441      -34.658376      -34.529745     -1.16
        831        415.5             0.02               376.60    0.041146      -34.699758      -34.658613      -34.529767     -1.26
        832        416.0             0.02               373.81    0.040840      -34.699662      -34.658821      -34.529768     -1.27
        833        416.5             0.02               367.07    0.040104      -34.699099      -34.658995      -34.529754     -1.21
        834        417.0             0.02               358.10    0.039124      -34.698263      -34.659140      -34.529736     -1.12
        835        417.5             0.02               349.32    0.038165      -34.697428      -34.659263      -34.529721     -1.06
        836        418.0             0.02               342.70    0.037442      -34.696817      -34.659375      -34.529714     -1.02
        837        418.5             0.02               339.27    0.037067      -34.696552      -34.659484      -34.529713     -1.02
        838        419.0             0.02               339.20    0.037060      -34.696656      -34.659597      -34.529715     -1.03
        839        419.5             0.02               342.17    0.037384      -34.697102      -34.659718      -34.529719     -1.04
        840        420.0             0.02               347.70    0.037988      -34.697843      -34.659855      -34.529722     -1.06
        841        420.5             0.02               355.25    0.038812      -34.698828      -34.660016      -34.529728     -1.09
        842        421.0             0.02               363.90    0.039758      -34.699964      -34.660206      -34.529739     -1.14
        843        421.5             0.02               372.12    0.040656      -34.701080      -34.660424      -34.529755     -1.21
        844        422.0             0.02               377.88    0.041285      -34.701942      -34.660657      -34.529770     -1.28
        845        422.5             0.02               379.64    0.041477      -34.702359      -34.660882      -34.529772     -1.29
        846        423.0             0.02               377.56    0.041251      -34.702334      -34.661083      -34.529756     -1.21
        847        423.5             0.02               374.00    0.040862      -34.702127      -34.661266      -34.529731     -1.10
        848        424.0             0.02               372.17    0.040662      -34.702116      -34.661454      -34.529717     -1.04
        849        424.5             0.02               373.70    0.040829      -34.702499      -34.661670      -34.529727     -1.08
        850        425.0             0.02               377.33    0.041225      -34.703136      -34.661911      -34.529751     -1.19
        851        425.5             0.02               380.06    0.041523      -34.703676      -34.662153      -34.529769     -1.27
        852        426.0             0.02               379.48    0.041460      -34.703838      -34.662378      -34.529771     -1.28
        853        426.5             0.02               375.22    0.040995      -34.703572      -34.662577      -34.529760     -1.23
        854        427.0             0.02               368.67    0.040279      -34.703033      -34.662754      -34.529744     -1.16
        855        427.5             0.03               361.84    0.039532      -34.702448      -34.662916      -34.529732     -1.11
        856        428.0             0.02               356.27    0.038925      -34.701993      -34.663069      -34.529728     -1.09
        857        428.5             0.02               352.59    0.038523      -34.701741      -34.663218      -34.529730     -1.10
        858        429.0             0.02               350.57    0.038301      -34.701665      -34.663364      -34.529734     -1.12
        859        429.5             0.03               349.66    0.038202      -34.701707      -34.663505      -34.529736     -1.12
        860        430.0             0.02               349.62    0.038198      -34.701840      -34.663642      -34.529734     -1.11
        861        430.5             0.02               350.71    0.038317      -34.702097      -34.663780      -34.529730     -1.10
        862        431.0             0.02               353.33    0.038603      -34.702534      -34.663931      -34.529731     -1.10
        863        431.5             0.02               357.28    0.039034      -34.703136      -34.664101      -34.529741     -1.15
        864        432.0             0.02               361.26    0.039470      -34.703759      -34.664289      -34.529758     -1.22
        865        432.5             0.02               363.35    0.039698      -34.704177      -34.664480      -34.529771     -1.28
        866        433.0             0.02               362.28    0.039581      -34.704232      -34.664651      -34.529768     -1.27
        867        433.5             0.02               358.81    0.039202      -34.703999      -34.664797      -34.529748     -1.18
        868        434.0             0.02               355.60    0.038852      -34.703782      -34.664931      -34.529727     -1.08
        869        434.5             0.02               355.41    0.038830      -34.703910      -34.665080      -34.529721     -1.06
        870        435.0             0.02               358.88    0.039210      -34.704469      -34.665259      -34.529735     -1.12
        871        435.5             0.02               364.24    0.039795      -34.705253      -34.665459      -34.529754     -1.21
        872        436.0             0.02               368.88    0.040302      -34.705964      -34.665662      -34.529765     -1.25
        873        436.5             0.02               371.31    0.040568      -34.706426      -34.665859      -34.529762     -1.24
        874        437.0             0.02               371.71    0.040611      -34.706661      -34.666050      -34.529752     -1.20
        875        437.5             0.02               371.21    0.040556      -34.706797      -34.666241      -34.529743     -1.16
        876        438.0             0.02               370.88    0.040520      -34.706956      -34.666436      -34.529740     -1.14
        877        438.5             0.02               371.11    0.040546      -34.707183      -34.666637      -34.529742     -1.15
        878        439.0             0.03               371.72    0.040613      -34.707454      -34.666841      -34.529745     -1.16
        879        439.5             0.03               372.39    0.040686      -34.707730      -34.667044      -34.529745     -1.17
        880        440.0             0.02               373.16    0.040770      -34.708015      -34.667245      -34.529741     -1.15
        881        440.5             0.02               374.56    0.040922      -34.708371      -34.667449      -34.529736     -1.13
        882        441.0             0.02               377.19    0.041210      -34.708875      -34.667665      -34.529736     -1.12
        883        441.5             0.02               381.06    0.041632      -34.709533      -34.667901      -34.529745     -1.16
        884        442.0             0.02               384.99    0.042062      -34.710218      -34.668156      -34.529762     -1.24
        885        442.5             0.02               386.95    0.042276      -34.710691      -34.668415      -34.529777     -1.31
        886        443.0             0.02               385.21    0.042086      -34.710742      -34.668655      -34.529779     -1.32
        887        443.5             0.02               379.87    0.041503      -34.710366      -34.668863      -34.529763     -1.25
        888        444.0             0.02               373.14    0.040767      -34.709813      -34.669046      -34.529741     -1.15
        889        444.5             0.02               367.88    0.040193      -34.709417      -34.669225      -34.529730     -1.09
        890        445.0             0.02               365.55    0.039938      -34.709353      -34.669415      -34.529736     -1.12
        891        445.5             0.02               365.36    0.039917      -34.709529      -34.669613      -34.529751     -1.19
        892        446.0             0.02               365.39    0.039920      -34.709726      -34.669805      -34.529760     -1.24
        893        446.5             0.02               364.25    0.039797      -34.709782      -34.669985      -34.529760     -1.23
        894        447.0             0.02               361.80    0.039528      -34.709680      -34.670152      -34.529754     -1.20
        895        447.5             0.02               358.73    0.039193      -34.709502      -34.670309      -34.529746     -1.17
        896        448.0             0.02               355.93    0.038887      -34.709349      -34.670461      -34.529742     -1.15
        897        448.5             0.02               354.03    0.038679      -34.709289      -34.670610      -34.529740     -1.14
        898        449.0             0.02               353.32    0.038602      -34.709361      -34.670759      -34.529739     -1.14
        899        449.5             0.02               353.95    0.038671      -34.709581      -34.670910      -34.529739     -1.14
        900        450.0             0.02               355.97    0.038891      -34.709957      -34.671066      -34.529738     -1.13
        901        450.5             0.02               359.41    0.039267      -34.710500      -34.671233      -34.529739     -1.14
        902        451.0             0.02               364.20    0.039790      -34.711206      -34.671416      -34.529742     -1.15
        903        451.5             0.02               369.88    0.040411      -34.712030      -34.671619      -34.529749     -1.18
        904        452.0             0.02               375.43    0.041017      -34.712860      -34.671842      -34.529761     -1.24
        905        452.5             0.02               379.32    0.041443      -34.713519      -34.672077      -34.529773     -1.29
        906        453.0             0.02               380.20    0.041538      -34.713843      -34.672305      -34.529777     -1.31
        907        453.5             0.02               377.82    0.041278      -34.713792      -34.672514      -34.529768     -1.27
        908        454.0             0.02               373.54    0.040811      -34.713514      -34.672703      -34.529751     -1.19
        909        454.5             0.02               369.67    0.040389      -34.713273      -34.672884      -34.529737     -1.13
        910        455.0             0.03               367.99    0.040205      -34.713278      -34.673073      -34.529735     -1.12
        911        455.5             0.02               368.67    0.040279      -34.713554      -34.673275      -34.529744     -1.16
        912        456.0             0.02               370.49    0.040478      -34.713962      -34.673483      -34.529756     -1.21
        913        456.5             0.02               371.95    0.040638      -34.714328      -34.673691      -34.529761     -1.24
        914        457.0             0.02               372.19    0.040664      -34.714555      -34.673891      -34.529760     -1.23
        915        457.5             0.02               371.34    0.040571      -34.714656      -34.674085      -34.529753     -1.20
        916        458.0             0.02               370.23    0.040449      -34.714722      -34.674273      -34.529745     -1.16
        917        458.5             0.02               369.90    0.040413      -34.714876      -34.674463      -34.529739     -1.14
        918        459.0             0.02               371.16    0.040552      -34.715212      -34.674660      -34.529737     -1.13
        919        459.5             0.02               374.28    0.040892      -34.715763      -34.674871      -34.529740     -1.14
        920        460.0             0.02               378.90    0.041396      -34.716494      -34.675098      -34.529745     -1.17
        921        460.5             0.02               384.30    0.041987      -34.717326      -34.675339      -34.529751     -1.19
        922        461.0             0.02               389.75    0.042582      -34.718177      -34.675595      -34.529755     -1.21
        923        461.5             0.02               394.71    0.043124      -34.718987      -34.675863      -34.529757     -1.22
        924        462.0             0.02               398.83    0.043574      -34.719718      -34.676143      -34.529761     -1.24
        925        462.5             0.02               401.72    0.043890      -34.720322      -34.676432      -34.529765     -1.26
        926        463.0             0.02               403.07    0.044037      -34.720759      -34.676722      -34.529766     -1.26
        927        463.5             0.03               403.04    0.044034      -34.721038      -34.677004      -34.529759     -1.23
        928        464.0             0.02               402.67    0.043993      -34.721273      -34.677280      -34.529748     -1.18
        929        464.5             0.02               403.42    0.044075      -34.721638      -34.677563      -34.529741     -1.15
        930        465.0             0.02               406.12    0.044371      -34.722236      -34.677865      -34.529745     -1.17
        931        465.5             0.02               410.12    0.044808      -34.722995      -34.678188      -34.529760     -1.23
        932        466.0             0.02               413.53    0.045180      -34.723700      -34.678520      -34.529774     -1.30
        933        466.5             0.02               414.50    0.045286      -34.724132      -34.678846      -34.529779     -1.32
        934        467.0             0.02               412.35    0.045051      -34.724206      -34.679155      -34.529774     -1.30
        935        467.5             0.02               407.86    0.044561      -34.724005      -34.679444      -34.529761     -1.24
        936        468.0             0.02               402.75    0.044002      -34.723721      -34.679719      -34.529748     -1.18
        937        468.5             0.02               398.78    0.043569      -34.723557      -34.679988      -34.529740     -1.14
        938        469.0             0.02               397.02    0.043376      -34.723636      -34.680260      -34.529740     -1.14
        939        469.5             0.02               397.43    0.043421      -34.723962      -34.680540      -34.529748     -1.18
        940        470.0             0.02               399.05    0.043598      -34.724426      -34.680829      -34.529758     -1.23
        941        470.5             0.02               400.51    0.043758      -34.724877      -34.681119      -34.529767     -1.27
        942        471.0             0.02               400.78    0.043788      -34.725191      -34.681404      -34.529770     -1.28
        943        471.5             0.02               399.58    0.043656      -34.725336      -34.681680      -34.529767     -1.27
        944        472.0             0.02               397.37    0.043415      -34.725363      -34.681948      -34.529762     -1.24
        945        472.5             0.02               394.96    0.043151      -34.725361      -34.682209      -34.529758     -1.22
        946        473.0             0.02               393.13    0.042951      -34.725417      -34.682466      -34.529754     -1.20
        947        473.5             0.02               392.58    0.042892      -34.725613      -34.682721      -34.529749     -1.18
        948        474.0             0.02               394.05    0.043052      -34.726032      -34.682980      -34.529744     -1.16
        949        474.5             0.02               397.98    0.043482      -34.726738      -34.683256      -34.529746     -1.17
        950        475.0             0.02               403.93    0.044132      -34.727691      -34.683559      -34.529758     -1.22
        951        475.5             0.02               410.27    0.044824      -34.728709      -34.683884      -34.529774     -1.30
        952        476.0             0.02               414.82    0.045321      -34.729539      -34.684218      -34.529786     -1.35
        953        476.5             0.02               416.05    0.045456      -34.729999      -34.684543      -34.529786     -1.35
        954        477.0             0.02               413.99    0.045231      -34.730083      -34.684852      -34.529776     -1.30
        955        477.5             0.02               410.10    0.044806      -34.729951      -34.685145      -34.529760     -1.23
        956        478.0             0.02               406.43    0.044404      -34.729835      -34.685431      -34.529748     -1.18
        957        478.5             0.02               404.57    0.044202      -34.729922      -34.685720      -34.529744     -1.16
        958        479.0             0.02               405.04    0.044253      -34.730272      -34.686019      -34.529749     -1.19
        959        479.5             0.02               407.10    0.044477      -34.730809      -34.686331      -34.529761     -1.24
        960        480.0             0.02               409.17    0.044704      -34.731354      -34.686650      -34.529774     -1.30
        961        480.5             0.02               409.57    0.044747      -34.731714      -34.686966      -34.529783     -1.34
        962        481.0             0.02               407.22    0.044491      -34.731758      -34.687268      -34.529784     -1.34
        963        481.5             0.02               402.18    0.043940      -34.731487      -34.687547      -34.529777     -1.31
        964        482.0             0.02               395.57    0.043218      -34.731022      -34.687803      -34.529766     -1.26
        965        482.5             0.02               388.98    0.042498      -34.730542      -34.688044      -34.529758     -1.22
        966        483.0             0.02               383.66    0.041917      -34.730192      -34.688276      -34.529755     -1.21
        967        483.5             0.02               380.15    0.041533      -34.730035      -34.688501      -34.529756     -1.22
        968        484.0             0.02               378.39    0.041341      -34.730065      -34.688723      -34.529758     -1.23
        969        484.5             0.02               378.05    0.041304      -34.730250      -34.688945      -34.529762     -1.24
        970        485.0             0.02               378.60    0.041364      -34.730535      -34.689171      -34.529767     -1.27
        971        485.5             0.02               379.14    0.041423      -34.730824      -34.689401      -34.529775     -1.30
        972        486.0             0.02               378.60    0.041364      -34.730990      -34.689626      -34.529781     -1.33
        973        486.5             0.02               376.32    0.041115      -34.730953      -34.689838      -34.529779     -1.32
        974        487.0             0.02               372.58    0.040706      -34.730738      -34.690032      -34.529769     -1.27
        975        487.5             0.02               368.64    0.040276      -34.730488      -34.690212      -34.529757     -1.22
        976        488.0             0.02               366.12    0.040001      -34.730388      -34.690387      -34.529747     -1.17
        977        488.5             0.02               366.28    0.040018      -34.730587      -34.690570      -34.529744     -1.16
        978        489.0             0.02               369.42    0.040361      -34.731130      -34.690769      -34.529749     -1.18
        979        489.5             0.02               374.78    0.040946      -34.731937      -34.690990      -34.529760     -1.24
        980        490.0             0.02               380.75    0.041599      -34.732830      -34.691231      -34.529774     -1.30
        981        490.5             0.02               385.49    0.042117      -34.733599      -34.691481      -34.529786     -1.35
        982        491.0             0.02               387.60    0.042348      -34.734078      -34.691731      -34.529790     -1.37
        983        491.5             0.02               386.73    0.042252      -34.734220      -34.691969      -34.529785     -1.35
        984        492.0             0.03               383.70    0.041921      -34.734114      -34.692192      -34.529774     -1.30
        985        492.5             0.02               380.10    0.041528      -34.733934      -34.692407      -34.529764     -1.25
        986        493.0             0.02               377.34    0.041226      -34.733846      -34.692620      -34.529760     -1.23
        987        493.5             0.02               375.99    0.041079      -34.733915      -34.692836      -34.529764     -1.25
        988        494.0             0.02               375.69    0.041046      -34.734100      -34.693054      -34.529770     -1.28
        989        494.5             0.02               375.68    0.041044      -34.734315      -34.693271      -34.529774     -1.30
        990        495.0             0.02               375.25    0.040998      -34.734483      -34.693485      -34.529777     -1.31
        991        495.5             0.02               373.90    0.040851      -34.734545      -34.693694      -34.529780     -1.32
        992        496.0             0.02               371.29    0.040565      -34.734459      -34.693894      -34.529780     -1.33
        993        496.5             0.02               367.39    0.040139      -34.734218      -34.694079      -34.529776     -1.31
        994        497.0             0.03               362.77    0.039635      -34.733881      -34.694246      -34.529767     -1.27
        995        497.5             0.02               358.59    0.039178      -34.733578      -34.694400      -34.529757     -1.22
        996        498.0             0.02               356.21    0.038918      -34.733467      -34.694549      -34.529748     -1.18
        997        498.5             0.02               356.65    0.038966      -34.733671      -34.694705      -34.529746     -1.17
        998        499.0             0.02               360.19    0.039353      -34.734230      -34.694877      -34.529750     -1.19
        999        499.5             0.02               366.20    0.040009      -34.735081      -34.695072      -34.529759     -1.23
       1000        500.0             0.02               373.29    0.040784      -34.736074      -34.695290      -34.529772     -1.29
       1001        500.5             0.02               379.82    0.041497      -34.737022      -34.695525      -34.529783     -1.34
       1002        501.0             0.02               384.38    0.041995      -34.737762      -34.695767      -34.529788     -1.36
       1003        501.5             0.02               386.34    0.042210      -34.738217      -34.696007      -34.529787     -1.35
       1004        502.0             0.02               386.11    0.042185      -34.738425      -34.696240      -34.529779     -1.32
       1005        502.5             0.02               384.83    0.042045      -34.738514      -34.696469      -34.529770     -1.28
       1006        503.0             0.02               383.70    0.041921      -34.738621      -34.696700      -34.529767     -1.26
       1007        503.5             0.02               383.22    0.041869      -34.738806      -34.696937      -34.529770     -1.28
       1008        504.0             0.02               383.01    0.041845      -34.739022      -34.697177      -34.529778     -1.31
       1009        504.5             0.02               382.13    0.041750      -34.739163      -34.697413      -34.529784     -1.34
       1010        505.0             0.02               379.80    0.041495      -34.739134      -34.697639      -34.529786     -1.35
       1011        505.5             0.02               375.71    0.041048      -34.738898      -34.697850      -34.529785     -1.35
       1012        506.0             0.02               369.98    0.040422      -34.738465      -34.698043      -34.529782     -1.33
       1013        506.5             0.02               363.07    0.039667      -34.737881      -34.698215      -34.529777     -1.31
       1014        507.0             0.02               355.68    0.038860      -34.737223      -34.698364      -34.529770     -1.28
       1015        507.5             0.02               348.80    0.038108      -34.736600      -34.698492      -34.529762     -1.24
       1016        508.0             0.02               343.46    0.037525      -34.736132      -34.698607      -34.529755     -1.21
       1017        508.5             0.02               340.52    0.037203      -34.735921      -34.698718      -34.529752     -1.20
       1018        509.0             0.02               340.32    0.037181      -34.736013      -34.698832      -34.529753     -1.20
       1019        509.5             0.03               342.61    0.037432      -34.736388      -34.698957      -34.529759     -1.23
       1020        510.0             0.02               346.60    0.037868      -34.736963      -34.699095      -34.529766     -1.26
       1021        510.5             0.03               351.20    0.038370      -34.737616      -34.699247      -34.529775     -1.30
       1022        511.0             0.02               355.32    0.038821      -34.738228      -34.699407      -34.529780     -1.33
       1023        511.5             0.02               358.31    0.039147      -34.738718      -34.699571      -34.529781     -1.33
       1024        512.0             0.02               360.11    0.039344      -34.739080      -34.699736      -34.529777     -1.31
       1025        512.5             0.02               361.32    0.039476      -34.739377      -34.699902      -34.529771     -1.28
       1026        513.0             0.02               362.81    0.039639      -34.739711      -34.700073      -34.529766     -1.26
       1027        513.5             0.02               365.27    0.039908      -34.740162      -34.700255      -34.529765     -1.26
       1028        514.0             0.02               368.82    0.040296      -34.740747      -34.700451      -34.529769     -1.27
       1029        514.5             0.02               373.03    0.040756      -34.741416      -34.700661      -34.529774     -1.30
       1030        515.0             0.03               377.14    0.041205      -34.742087      -34.700883      -34.529780     -1.32
       1031        515.5             0.02               380.35    0.041555      -34.742668      -34.701113      -34.529785     -1.35
       1032        516.0             0.02               381.94    0.041728      -34.743074      -34.701346      -34.529789     -1.36
       1033        516.5             0.02               381.45    0.041675      -34.743250      -34.701575      -34.529789     -1.37
       1034        517.0             0.02               378.86    0.041392      -34.743185      -34.701792      -34.529786     -1.35
       1035        517.5             0.02               374.69    0.040937      -34.742932      -34.701995      -34.529779     -1.32
       1036        518.0             0.02               369.90    0.040413      -34.742596      -34.702182      -34.529771     -1.28
       1037        518.5             0.02               365.60    0.039943      -34.742302      -34.702359      -34.529764     -1.25
       1038        519.0             0.02               362.74    0.039631      -34.742162      -34.702531      -34.529760     -1.23
       1039        519.5             0.02               361.86    0.039535      -34.742239      -34.702704      -34.529760     -1.23
       1040        520.0             0.02               362.89    0.039647      -34.742532      -34.702885      -34.529764     -1.25
       1041        520.5             0.02               365.20    0.039900      -34.742975      -34.703075      -34.529772     -1.29
       1042        521.0             0.02               367.71    0.040174      -34.743448      -34.703274      -34.529781     -1.33
       1043        521.5             0.02               369.30    0.040348      -34.743823      -34.703474      -34.529787     -1.36
       1044        522.0             0.02               369.27    0.040344      -34.744013      -34.703668      -34.529787     -1.36
       1045        522.5             0.02               367.71    0.040174      -34.744026      -34.703852      -34.529781     -1.33
       1046        523.0             0.03               365.61    0.039945      -34.743970      -34.704025      -34.529771     -1.28
       1047        523.5             0.02               364.41    0.039813      -34.744010      -34.704197      -34.529762     -1.24
       1048        524.0             0.02               365.28    0.039909      -34.744286      -34.704377      -34.529759     -1.23
       1049        524.5             0.02               368.59    0.040270      -34.744843      -34.704573      -34.529763     -1.25
       1050        525.0             0.02               373.68    0.040826      -34.745616      -34.704790      -34.529773     -1.29
       1051        525.5             0.02               379.14    0.041423      -34.746447      -34.705023      -34.529785     -1.35
       1052        526.0             0.02               383.30    0.041877      -34.747144      -34.705267      -34.529795     -1.40
       1053        526.5             0.02               384.76    0.042037      -34.747547      -34.705509      -34.529800     -1.42
       1054        527.0             0.02               382.94    0.041838      -34.747578      -34.705739      -34.529798     -1.41
       1055        527.5             0.03               378.19    0.041320      -34.747270      -34.705950      -34.529790     -1.37
       1056        528.0             0.02               371.75    0.040615      -34.746755      -34.706139      -34.529778     -1.32
       1057        528.5             0.02               365.27    0.039908      -34.746218      -34.706310      -34.529766     -1.26
       1058        529.0             0.02               360.37    0.039372      -34.745844      -34.706472      -34.529759     -1.23
       1059        529.5             0.03               358.07    0.039121      -34.745754      -34.706633      -34.529757     -1.22
       1060        530.0             0.02               358.49    0.039166      -34.745970      -34.706803      -34.529763     -1.25
       1061        530.5             0.03               360.74    0.039412      -34.746397      -34.706985      -34.529775     -1.30
       1062        531.0             0.03               363.18    0.039679      -34.746855      -34.707176      -34.529789     -1.37
       1063        531.5             0.02               364.05    0.039774      -34.747139      -34.707365      -34.529798     -1.41
       1064        532.0             0.02               362.21    0.039573      -34.747112      -34.707539      -34.529799     -1.41
       1065        532.5             0.02               357.78    0.039089      -34.746780      -34.707691      -34.529789     -1.37
       1066        533.0             0.02               352.22    0.038481      -34.746304      -34.707822      -34.529773     -1.29
       1067        533.5             0.02               347.67    0.037985      -34.745927      -34.707942      -34.529760     -1.23
       1068        534.0             0.02               345.94    0.037796      -34.745862      -34.708066      -34.529755     -1.21
       1069        534.5             0.02               347.64    0.037982      -34.746187      -34.708205      -34.529760     -1.24
       1070        535.0             0.03               352.02    0.038460      -34.746822      -34.708363      -34.529773     -1.29
       1071        535.5             0.02               357.36    0.039044      -34.747581      -34.708537      -34.529786     -1.35
       1072        536.0             0.02               361.72    0.039519      -34.748241      -34.708721      -34.529797     -1.40
       1073        536.5             0.02               363.55    0.039719      -34.748623      -34.708904      -34.529802     -1.43
       1074        537.0             0.02               362.22    0.039574      -34.748649      -34.709075      -34.529799     -1.41
       1075        537.5             0.03               358.18    0.039133      -34.748362      -34.709229      -34.529790     -1.37
       1076        538.0             0.02               352.81    0.038546      -34.747910      -34.709364      -34.529777     -1.31
       1077        538.5             0.02               347.91    0.038011      -34.747496      -34.709486      -34.529764     -1.25
       1078        539.0             0.02               345.11    0.037705      -34.747311      -34.709605      -34.529757     -1.22
       1079        539.5             0.02               345.33    0.037729      -34.747462      -34.709733      -34.529758     -1.22
       1080        540.0             0.03               348.41    0.038065      -34.747942      -34.709877      -34.529767     -1.26
       1081        540.5             0.03               353.12    0.038580      -34.748619      -34.710040      -34.529781     -1.33
       1082        541.0             0.02               357.54    0.039063      -34.749279      -34.710216      -34.529795     -1.40
       1083        541.5             0.02               359.75    0.039304      -34.749697      -34.710393      -34.529805     -1.44
       1084        542.0             0.02               358.53    0.039172      -34.749729      -34.710558      -34.529806     -1.44
       1085        542.5             0.02               354.01    0.038677      -34.749377      -34.710699      -34.529796     -1.40
       1086        543.0             0.02               347.65    0.037983      -34.748799      -34.710817      -34.529780     -1.33
       1087        543.5             0.02               341.70    0.037332      -34.748251      -34.710919      -34.529766     -1.26
       1088        544.0             0.02               338.16    0.036945      -34.747964      -34.711019      -34.529759     -1.23
       1089        544.5             0.02               337.93    0.036920      -34.748049      -34.711129      -34.529762     -1.24
       1090        545.0             0.02               340.49    0.037201      -34.748454      -34.711253      -34.529773     -1.29
       1091        545.5             0.02               344.34    0.037620      -34.749010      -34.711390      -34.529786     -1.35
       1092        546.0             0.02               347.64    0.037982      -34.749515      -34.711533      -34.529796     -1.40
       1093        546.5             0.02               349.03    0.038133      -34.749808      -34.711674      -34.529799     -1.41
       1094        547.0             0.02               347.99    0.038020      -34.749825      -34.711805      -34.529796     -1.40
       1095        547.5             0.02               345.02    0.037695      -34.749617      -34.711922      -34.529786     -1.35
       1096        548.0             0.02               341.43    0.037303      -34.749328      -34.712026      -34.529774     -1.30
       1097        548.5             0.02               338.85    0.037021      -34.749145      -34.712124      -34.529764     -1.25
       1098        549.0             0.02               338.66    0.037001      -34.749228      -34.712227      -34.529759     -1.23
       1099        549.5             0.03               341.52    0.037312      -34.749658      -34.712345      -34.529761     -1.24
       1100        550.0             0.02               347.07    0.037919      -34.750405      -34.712486      -34.529769     -1.28
       1101        550.5             0.02               354.06    0.038683      -34.751333      -34.712650      -34.529782     -1.33
       1102        551.0             0.02               360.73    0.039412      -34.752246      -34.712834      -34.529795     -1.39
       1103        551.5             0.02               365.35    0.039916      -34.752942      -34.713026      -34.529804     -1.44
       1104        552.0             0.02               366.77    0.040072      -34.753287      -34.713215      -34.529806     -1.45
       1105        552.5             0.02               364.92    0.039870      -34.753260      -34.713390      -34.529800     -1.42
       1106        553.0             0.02               360.84    0.039423      -34.752971      -34.713548      -34.529787     -1.36
       1107        553.5             0.02               356.37    0.038935      -34.752627      -34.713692      -34.529773     -1.29
       1108        554.0             0.02               353.42    0.038613      -34.752446      -34.713833      -34.529765     -1.26
       1109        554.5             0.02               353.10    0.038578      -34.752561      -34.713983      -34.529766     -1.26
       1110        555.0             0.02               355.19    0.038806      -34.752954      -34.714147      -34.529776     -1.30
       1111        555.5             0.02               358.38    0.039155      -34.753478      -34.714323      -34.529788     -1.36
       1112        556.0             0.02               360.94    0.039434      -34.753938      -34.714504      -34.529798     -1.41
       1113        556.5             0.02               361.51    0.039496      -34.754176      -34.714679      -34.529801     -1.42
       1114        557.0             0.02               359.63    0.039291      -34.754134      -34.714843      -34.529797     -1.40
       1115        557.5             0.02               355.81    0.038874      -34.753864      -34.714990      -34.529789     -1.36
       1116        558.0             0.02               351.29    0.038380      -34.753503      -34.715123      -34.529778     -1.32
       1117        558.5             0.02               347.50    0.037966      -34.753213      -34.715248      -34.529769     -1.28
       1118        559.0             0.02               345.60    0.037759      -34.753130      -34.715371      -34.529765     -1.26
       1119        559.5             0.02               346.10    0.037813      -34.753315      -34.715502      -34.529767     -1.27
       1120        560.0             0.03               348.69    0.038096      -34.753742      -34.715645      -34.529773     -1.29
       1121        560.5             0.02               352.47    0.038509      -34.754310      -34.715801      -34.529783     -1.34
       1122        561.0             0.02               356.14    0.038910      -34.754878      -34.715968      -34.529792     -1.38
       1123        561.5             0.02               358.40    0.039156      -34.755296      -34.716140      -34.529800     -1.42
       1124        562.0             0.02               358.26    0.039141      -34.755448      -34.716306      -34.529804     -1.43
       1125        562.5             0.02               355.38    0.038827      -34.755286      -34.716459      -34.529801     -1.42
       1126        563.0             0.02               350.28    0.038270      -34.754861      -34.716591      -34.529792     -1.38
       1127        563.5             0.03               344.33    0.037620      -34.754322      -34.716702      -34.529779     -1.32
       1128        564.0             0.03               339.27    0.037067      -34.753869      -34.716802      -34.529769     -1.27
       1129        564.5             0.02               336.48    0.036762      -34.753663      -34.716901      -34.529766     -1.26
       1130        565.0             0.03               336.31    0.036744      -34.753752      -34.717008      -34.529771     -1.28
       1131        565.5             0.03               337.95    0.036923      -34.754049      -34.717125      -34.529782     -1.33
       1132        566.0             0.02               339.89    0.037135      -34.754382      -34.717248      -34.529793     -1.38
       1133        566.5             0.02               340.69    0.037222      -34.754589      -34.717367      -34.529798     -1.41
       1134        567.0             0.02               339.63    0.037107      -34.754583      -34.717476      -34.529796     -1.40
       1135        567.5             0.02               336.91    0.036809      -34.754382      -34.717573      -34.529790     -1.37
       1136        568.0             0.02               333.39    0.036425      -34.754083      -34.717658      -34.529781     -1.33
       1137        568.5             0.02               330.24    0.036081      -34.753816      -34.717736      -34.529774     -1.30
       1138        569.0             0.02               328.46    0.035886      -34.753697      -34.717811      -34.529770     -1.28
       1139        569.5             0.02               328.62    0.035903      -34.753793      -34.717890      -34.529769     -1.27
       1140        570.0             0.02               330.80    0.036142      -34.754121      -34.717979      -34.529771     -1.28
       1141        570.5             0.02               334.62    0.036559      -34.754641      -34.718081      -34.529776     -1.31
       1142        571.0             0.02               339.31    0.037071      -34.755270      -34.718199      -34.529784     -1.34
       1143        571.5             0.02               343.81    0.037563      -34.755892      -34.718329      -34.529792     -1.38
       1144        572.0             0.03               347.06    0.037918      -34.756385      -34.718467      -34.529798     -1.41
       1145        572.5             0.02               348.31    0.038054      -34.756659      -34.718604      -34.529799     -1.41
       1146        573.0             0.02               347.49    0.037965      -34.756698      -34.718732      -34.529795     -1.39
       1147        573.5             0.03               345.38    0.037734      -34.756584      -34.718850      -34.529785     -1.35
       1148        574.0             0.03               343.34    0.037511      -34.756472      -34.718961      -34.529775     -1.30
       1149        574.5             0.02               342.72    0.037444      -34.756519      -34.719075      -34.529769     -1.28
       1150        575.0             0.02               344.19    0.037605      -34.756807      -34.719202      -34.529772     -1.29
       1151        575.5             0.02               347.42    0.037957      -34.757300      -34.719343      -34.529780     -1.33
       1152        576.0             0.02               351.22    0.038373      -34.757870      -34.719497      -34.529790     -1.37
       1153        576.5             0.02               354.25    0.038703      -34.758359      -34.719656      -34.529797     -1.40
       1154        577.0             0.03               355.51    0.038841      -34.758654      -34.719813      -34.529799     -1.41
       1155        577.5             0.03               354.76    0.038759      -34.758722      -34.719963      -34.529796     -1.40
       1156        578.0             0.03               352.44    0.038506      -34.758610      -34.720104      -34.529790     -1.37
       1157        578.5             0.02               349.48    0.038182      -34.758416      -34.720234      -34.529782     -1.33
       1158        579.0             0.02               346.98    0.037910      -34.758268      -34.720358      -34.529774     -1.30
       1159        579.5             0.03               346.01    0.037804      -34.758285      -34.720482      -34.529769     -1.27
       1160        580.0             0.03               347.27    0.037941      -34.758554      -34.720613      -34.529767     -1.27
       1161        580.5             0.02               350.88    0.038336      -34.759095      -34.720759      -34.529771     -1.28
       1162        581.0             0.02               356.26    0.038924      -34.759849      -34.720925      -34.529779     -1.32
       1163        581.5             0.02               362.18    0.039570      -34.760681      -34.721111      -34.529791     -1.37
       1164        582.0             0.03               367.12    0.040109      -34.761418      -34.721309      -34.529801     -1.42
       1165        582.5             0.02               369.76    0.040398      -34.761907      -34.721509      -34.529806     -1.44
       1166        583.0             0.03               369.56    0.040376      -34.762078      -34.721702      -34.529803     -1.43
       1167        583.5             0.03               367.00    0.040097      -34.761976      -34.721880      -34.529794     -1.39
       1168        584.0             0.03               363.46    0.039710      -34.761755      -34.722046      -34.529782     -1.33
       1169        584.5             0.02               360.61    0.039398      -34.761605      -34.722206      -34.529773     -1.29
       1170        585.0             0.03               359.65    0.039294      -34.761666      -34.722372      -34.529772     -1.29
       1171        585.5             0.03               360.73    0.039411      -34.761960      -34.722549      -34.529778     -1.32
       1172        586.0             0.03               362.95    0.039654      -34.762390      -34.722736      -34.529789     -1.37
       1173        586.5             0.02               364.86    0.039862      -34.762790      -34.722928      -34.529799     -1.41
       1174        587.0             0.03               365.09    0.039888      -34.763003      -34.723115      -34.529804     -1.44
       1175        587.5             0.03               362.94    0.039653      -34.762944      -34.723290      -34.529803     -1.43
       1176        588.0             0.03               358.58    0.039176      -34.762624      -34.723448      -34.529796     -1.40
       1177        588.5             0.02               352.98    0.038565      -34.762150      -34.723585      -34.529785     -1.35
       1178        589.0             0.03               347.64    0.037981      -34.761689      -34.723707      -34.529774     -1.30
       1179        589.5             0.02               344.08    0.037593      -34.761415      -34.723823      -34.529766     -1.26
       1180        590.0             0.03               343.37    0.037514      -34.761456      -34.723942      -34.529764     -1.25
       1181        590.5             0.02               345.73    0.037772      -34.761847      -34.724074      -34.529768     -1.27
       1182        591.0             0.03               350.48    0.038291      -34.762517      -34.724226      -34.529778     -1.31
       1183        591.5             0.02               356.22    0.038919      -34.763314      -34.724395      -34.529790     -1.37
       1184        592.0             0.03               361.27    0.039470      -34.764048      -34.724578      -34.529801     -1.42
       1185        592.5             0.03               364.18    0.039788      -34.764552      -34.724764      -34.529807     -1.45
       1186        593.0             0.02               364.24    0.039795      -34.764738      -34.724943      -34.529806     -1.44
       1187        593.5             0.02               361.77    0.039525      -34.764632      -34.725107      -34.529798     -1.41
       1188        594.0             0.02               358.02    0.039116      -34.764374      -34.725258      -34.529785     -1.35
       1189        594.5             0.02               354.73    0.038756      -34.764156      -34.725401      -34.529775     -1.30
       1190        595.0             0.03               353.26    0.038596      -34.764142      -34.725547      -34.529772     -1.29
       1191        595.5             0.02               354.00    0.038677      -34.764381      -34.725704      -34.529778     -1.31
       1192        596.0             0.02               356.12    0.038908      -34.764781      -34.725873      -34.529790     -1.37
       1193        596.5             0.03               357.97    0.039111      -34.765158      -34.726048      -34.529802     -1.42
       1194        597.0             0.03               357.95    0.039108      -34.765324      -34.726217      -34.529809     -1.46
       1195        597.5             0.02               355.13    0.038800      -34.765170      -34.726370      -34.529808     -1.45
       1196        598.0             0.03               349.71    0.038208      -34.764709      -34.726501      -34.529800     -1.41
       1197        598.5             0.03               342.83    0.037456      -34.764065      -34.726610      -34.529788     -1.36
       1198        599.0             0.03               336.10    0.036720      -34.763420      -34.726700      -34.529777     -1.31
       1199        599.5             0.02               331.00    0.036164      -34.762944      -34.726780      -34.529770     -1.28
       1200        600.0             0.03               328.42    0.035882      -34.762740      -34.726859      -34.529769     -1.28
       1201        600.5             0.02               328.43    0.035882      -34.762825      -34.726943      -34.529774     -1.30
       1202        601.0             0.02               330.39    0.036097      -34.763132      -34.727036      -34.529781     -1.33
       1203        601.5             0.02               333.21    0.036405      -34.763543      -34.727137      -34.529790     -1.37
       1204        602.0             0.02               335.69    0.036676      -34.763921      -34.727245      -34.529798     -1.41
       1205        602.5             0.02               336.83    0.036800      -34.764152      -34.727352      -34.529802     -1.43
       1206        603.0             0.03               336.16    0.036727      -34.764179      -34.727452      -34.529801     -1.42
       1207        603.5             0.03               333.99    0.036490      -34.764030      -34.727540      -34.529793     -1.39
       1208        604.0             0.03               331.43    0.036211      -34.763828      -34.727617      -34.529782     -1.33
       1209        604.5             0.03               330.02    0.036057      -34.763748      -34.727691      -34.529772     -1.29
       1210        605.0             0.02               331.03    0.036166      -34.763942      -34.727776      -34.529770     -1.28
       1211        605.5             0.03               334.73    0.036571      -34.764450      -34.727880      -34.529776     -1.31
       1212        606.0             0.03               340.17    0.037165      -34.765170      -34.728005      -34.529789     -1.37
       1213        606.5             0.03               345.57    0.037755      -34.765901      -34.728146      -34.529802     -1.43
       1214        607.0             0.03               349.21    0.038152      -34.766443      -34.728290      -34.529809     -1.46
       1215        607.5             0.03               350.12    0.038252      -34.766682      -34.728430      -34.529808     -1.45
       1216        608.0             0.03               348.45    0.038070      -34.766628      -34.728558      -34.529801     -1.42
       1217        608.5             0.02               345.17    0.037711      -34.766387      -34.728675      -34.529791     -1.38
       1218        609.0             0.02               341.60    0.037322      -34.766106      -34.728784      -34.529783     -1.34
       1219        609.5             0.03               338.90    0.037026      -34.765914      -34.728888      -34.529779     -1.32
       1220        610.0             0.04               337.68    0.036894      -34.765887      -34.728993      -34.529778     -1.32
       1221        610.5             0.03               338.02    0.036930      -34.766033      -34.729103      -34.529781     -1.33
       1222        611.0             0.03               339.45    0.037087      -34.766306      -34.729219      -34.529787     -1.36
       1223        611.5             0.03               341.23    0.037281      -34.766621      -34.729340      -34.529793     -1.38
       1224        612.0             0.03               342.51    0.037421      -34.766886      -34.729465      -34.529798     -1.41
       1225        612.5             0.03               342.64    0.037435      -34.767022      -34.729587      -34.529801     -1.42
       1226        613.0             0.02               341.37    0.037297      -34.766998      -34.729701      -34.529799     -1.41
       1227        613.5             0.03               339.03    0.037040      -34.766845      -34.729804      -34.529793     -1.38
       1228        614.0             0.03               336.53    0.036767      -34.766665      -34.729897      -34.529784     -1.34
       1229        614.5             0.03               335.13    0.036614      -34.766602      -34.729988      -34.529776     -1.30
       1230        615.0             0.03               335.92    0.036700      -34.766785      -34.730085      -34.529772     -1.29
       1231        615.5             0.03               339.24    0.037064      -34.767263      -34.730199      -34.529777     -1.31
       1232        616.0             0.02               344.44    0.037632      -34.767966      -34.730334      -34.529787     -1.36
       1233        616.5             0.03               350.08    0.038248      -34.768733      -34.730485      -34.529798     -1.41
       1234        617.0             0.02               354.61    0.038743      -34.769389      -34.730646      -34.529805     -1.44
       1235        617.5             0.02               357.01    0.039005      -34.769812      -34.730807      -34.529807     -1.45
       1236        618.0             0.02               357.12    0.039017      -34.769980      -34.730963      -34.529803     -1.43
       1237        618.5             0.03               355.50    0.038840      -34.769952      -34.731111      -34.529796     -1.40
       1238        619.0             0.03               353.10    0.038578      -34.769831      -34.731254      -34.529789     -1.37
       1239        619.5             0.02               350.81    0.038328      -34.769720      -34.731392      -34.529785     -1.35
       1240        620.0             0.02               349.23    0.038155      -34.769684      -34.731529      -34.529784     -1.35
       1241        620.5             0.03               348.48    0.038073      -34.769740      -34.731667      -34.529787     -1.36
       1242        621.0             0.03               348.26    0.038049      -34.769856      -34.731807      -34.529791     -1.38
       1243        621.5             0.03               347.98    0.038019      -34.769965      -34.731946      -34.529796     -1.40
       1244        622.0             0.03               347.01    0.037913      -34.769994      -34.732081      -34.529800     -1.42
       1245        622.5             0.03               344.88    0.037679      -34.769888      -34.732208      -34.529801     -1.42
       1246        623.0             0.02               341.46    0.037306      -34.769629      -34.732323      -34.529800     -1.41
       1247        623.5             0.02               337.06    0.036825      -34.769248      -34.732423      -34.529795     -1.39
       1248        624.0             0.03               332.33    0.036308      -34.768816      -34.732507      -34.529789     -1.37
       1249        624.5             0.03               328.15    0.035852      -34.768431      -34.732580      -34.529783     -1.34
       1250        625.0             0.02               325.37    0.035548      -34.768194      -34.732647      -34.529779     -1.32
       1251        625.5             0.02               324.48    0.035451      -34.768166      -34.732715      -34.529779     -1.32
       1252        626.0             0.02               325.39    0.035550      -34.768341      -34.732791      -34.529784     -1.34
       1253        626.5             0.03               327.42    0.035773      -34.768647      -34.732875      -34.529790     -1.37
       1254        627.0             0.03               329.65    0.036016      -34.768979      -34.732963      -34.529796     -1.40
       1255        627.5             0.03               331.26    0.036192      -34.769245      -34.733053      -34.529798     -1.41
       1256        628.0             0.03               331.91    0.036263      -34.769404      -34.733141      -34.529797     -1.40
       1257        628.5             0.02               331.79    0.036249      -34.769475      -34.733226      -34.529793     -1.38
       1258        629.0             0.03               331.42    0.036210      -34.769519      -34.733309      -34.529788     -1.36
       1259        629.5             0.03               331.48    0.036215      -34.769609      -34.733394      -34.529784     -1.34
       1260        630.0             0.02               332.44    0.036320      -34.769803      -34.733483      -34.529783     -1.34
       1261        630.5             0.02               334.46    0.036541      -34.770123      -34.733581      -34.529784     -1.34
       1262        631.0             0.03               337.33    0.036854      -34.770544      -34.733690      -34.529788     -1.36
       1263        631.5             0.02               340.50    0.037201      -34.771009      -34.733808      -34.529793     -1.38
       1264        632.0             0.02               343.29    0.037507      -34.771441      -34.733934      -34.529798     -1.41
       1265        632.5             0.03               345.03    0.037696      -34.771761      -34.734065      -34.529802     -1.43
       1266        633.0             0.02               345.17    0.037712      -34.771906      -34.734194      -34.529805     -1.44
       1267        633.5             0.02               343.45    0.037523      -34.771839      -34.734315      -34.529805     -1.44
       1268        634.0             0.02               339.98    0.037144      -34.771568      -34.734424      -34.529801     -1.42
       1269        634.5             0.03               335.35    0.036638      -34.771155      -34.734516      -34.529795     -1.39
       1270        635.0             0.03               330.49    0.036107      -34.770702      -34.734595      -34.529787     -1.36
       1271        635.5             0.02               326.38    0.035658      -34.770322      -34.734664      -34.529783     -1.34
       1272        636.0             0.02               323.64    0.035359      -34.770089      -34.734729      -34.529782     -1.33
       1273        636.5             0.02               322.27    0.035210      -34.770005      -34.734796      -34.529786     -1.35
       1274        637.0             0.02               321.73    0.035151      -34.770013      -34.734862      -34.529791     -1.38
       1275        637.5             0.02               321.28    0.035101      -34.770027      -34.734925      -34.529795     -1.39
       1276        638.0             0.03               320.37    0.035002      -34.769985      -34.734983      -34.529795     -1.40
       1277        638.5             0.03               318.94    0.034846      -34.769878      -34.735033      -34.529792     -1.38
       1278        639.0             0.03               317.38    0.034675      -34.769752      -34.735076      -34.529787     -1.36
       1279        639.5             0.03               316.36    0.034564      -34.769681      -34.735117      -34.529782     -1.34
       1280        640.0             0.03               316.53    0.034583      -34.769743      -34.735160      -34.529779     -1.32
       1281        640.5             0.03               318.31    0.034777      -34.769988      -34.735211      -34.529779     -1.32
       1282        641.0             0.03               321.74    0.035151      -34.770426      -34.735274      -34.529781     -1.33
       1283        641.5             0.03               326.45    0.035666      -34.771020      -34.735353      -34.529786     -1.35
       1284        642.0             0.02               331.76    0.036246      -34.771695      -34.735449      -34.529792     -1.38
       1285        642.5             0.03               336.74    0.036791      -34.772350      -34.735559      -34.529799     -1.41
       1286        643.0             0.03               340.46    0.037197      -34.772875      -34.735678      -34.529806     -1.44
       1287        643.5             0.03               342.14    0.037381      -34.773180      -34.735799      -34.529808     -1.45
       1288        644.0             0.03               341.50    0.037310      -34.773224      -34.735914      -34.529807     -1.45
       1289        644.5             0.03               338.90    0.037026      -34.773042      -34.736016      -34.529800     -1.42
       1290        645.0             0.03               335.30    0.036634      -34.772740      -34.736106      -34.529791     -1.38
       1291        645.5             0.03               331.92    0.036263      -34.772452      -34.736189      -34.529785     -1.35
       1292        646.0             0.03               329.61    0.036012      -34.772282      -34.736270      -34.529783     -1.34
       1293        646.5             0.03               328.55    0.035895      -34.772250      -34.736355      -34.529787     -1.36
       1294        647.0             0.02               328.14    0.035851      -34.772291      -34.736440      -34.529794     -1.39
       1295        647.5             0.03               327.48    0.035779      -34.772301      -34.736522      -34.529799     -1.41
       1296        648.0             0.03               325.83    0.035599      -34.772195      -34.736596      -34.529801     -1.42
       1297        648.5             0.02               323.04    0.035294      -34.771951      -34.736657      -34.529797     -1.40
       1298        649.0             0.02               319.56    0.034914      -34.771619      -34.736706      -34.529791     -1.37
       1299        649.5             0.02               316.27    0.034554      -34.771298      -34.736744      -34.529784     -1.34
       1300        650.0             0.02               314.10    0.034317      -34.771096      -34.736778      -34.529779     -1.32
       1301        650.5             0.02               313.76    0.034280      -34.771095      -34.736815      -34.529777     -1.31
       1302        651.0             0.03               315.51    0.034472      -34.771331      -34.736860      -34.529778     -1.32
       1303        651.5             0.02               319.12    0.034865      -34.771783      -34.736918      -34.529783     -1.34
       1304        652.0             0.02               323.91    0.035388      -34.772380      -34.736992      -34.529789     -1.37
       1305        652.5             0.02               328.96    0.035941      -34.773020      -34.737080      -34.529796     -1.40
       1306        653.0             0.03               333.33    0.036418      -34.773597      -34.737179      -34.529802     -1.42
       1307        653.5             0.02               336.30    0.036742      -34.774025      -34.737283      -34.529804     -1.44
       1308        654.0             0.02               337.60    0.036884      -34.774270      -34.737386      -34.529802     -1.43
       1309        654.5             0.02               337.58    0.036882      -34.774367      -34.737486      -34.529796     -1.40
       1310        655.0             0.03               337.08    0.036828      -34.774410      -34.737582      -34.529789     -1.37
       1311        655.5             0.02               337.07    0.036827      -34.774509      -34.737682      -34.529785     -1.35
       1312        656.0             0.02               338.08    0.036936      -34.774727      -34.737790      -34.529787     -1.36
       1313        656.5             0.03               339.86    0.037131      -34.775040      -34.737909      -34.529793     -1.39
       1314        657.0             0.03               341.49    0.037310      -34.775343      -34.738033      -34.529802     -1.43
       1315        657.5             0.03               341.87    0.037351      -34.775507      -34.738156      -34.529808     -1.45
       1316        658.0             0.03               340.24    0.037173      -34.775442      -34.738269      -34.529808     -1.45
       1317        658.5             0.03               336.59    0.036774      -34.775141      -34.738367      -34.529803     -1.43
       1318        659.0             0.03               331.60    0.036229      -34.774676      -34.738448      -34.529795     -1.39
       1319        659.5             0.03               326.37    0.035658      -34.774171      -34.738513      -34.529787     -1.36
       1320        660.0             0.03               322.01    0.035182      -34.773751      -34.738570      -34.529782     -1.33
       1321        660.5             0.03               319.29    0.034884      -34.773506      -34.738622      -34.529780     -1.32
       1322        661.0             0.03               318.42    0.034789      -34.773465      -34.738676      -34.529782     -1.33
       1323        661.5             0.03               319.11    0.034864      -34.773598      -34.738734      -34.529787     -1.35
       1324        662.0             0.03               320.71    0.035040      -34.773836      -34.738797      -34.529792     -1.38
       1325        662.5             0.03               322.53    0.035238      -34.774102      -34.738864      -34.529795     -1.40
       1326        663.0             0.03               324.07    0.035407      -34.774339      -34.738933      -34.529797     -1.40
       1327        663.5             0.03               325.18    0.035528      -34.774530      -34.739002      -34.529796     -1.40
       1328        664.0             0.03               326.07    0.035625      -34.774697      -34.739072      -34.529792     -1.38
       1329        664.5             0.03               327.19    0.035747      -34.774891      -34.739144      -34.529789     -1.36
       1330        665.0             0.02               329.06    0.035951      -34.775174      -34.739223      -34.529786     -1.35
       1331        665.5             0.03               332.04    0.036277      -34.775589      -34.739312      -34.529786     -1.35
       1332        666.0             0.02               336.09    0.036719      -34.776136      -34.739417      -34.529789     -1.37
       1333        666.5             0.03               340.67    0.037219      -34.776757      -34.739538      -34.529796     -1.40
       1334        667.0             0.02               344.84    0.037675      -34.777346      -34.739670      -34.529803     -1.43
       1335        667.5             0.02               347.65    0.037982      -34.777791      -34.739808      -34.529808     -1.45
       1336        668.0             0.02               348.50    0.038075      -34.778020      -34.739945      -34.529808     -1.45
       1337        668.5             0.02               347.39    0.037954      -34.778027      -34.740073      -34.529804     -1.43
       1338        669.0             0.03               344.92    0.037684      -34.777876      -34.740192      -34.529797     -1.40
       1339        669.5             0.02               342.01    0.037366      -34.777670      -34.740304      -34.529791     -1.37
       1340        670.0             0.02               339.53    0.037095      -34.777506      -34.740411      -34.529787     -1.36
       1341        670.5             0.02               337.99    0.036927      -34.777444      -34.740517      -34.529787     -1.36
       1342        671.0             0.02               337.33    0.036856      -34.777481      -34.740626      -34.529791     -1.38
       1343        671.5             0.02               337.07    0.036827      -34.777562      -34.740735      -34.529797     -1.40
       1344        672.0             0.02               336.51    0.036765      -34.777606      -34.740841      -34.529800     -1.42
       1345        672.5             0.02               335.15    0.036617      -34.777558      -34.740940      -34.529801     -1.42
       1346        673.0             0.02               332.97    0.036379      -34.777409      -34.741030      -34.529798     -1.41
       1347        673.5             0.02               330.38    0.036096      -34.777206      -34.741110      -34.529794     -1.39
       1348        674.0             0.02               327.99    0.035835      -34.777020      -34.741185      -34.529790     -1.37
       1349        674.5             0.03               326.33    0.035653      -34.776910      -34.741257      -34.529788     -1.36
       1350        675.0             0.02               325.68    0.035582      -34.776910      -34.741328      -34.529788     -1.36
       1351        675.5             0.02               326.09    0.035627      -34.777029      -34.741402      -34.529788     -1.36
       1352        676.0             0.03               327.46    0.035776      -34.777257      -34.741481      -34.529790     -1.37
       1353        676.5             0.02               329.48    0.035998      -34.777564      -34.741567      -34.529793     -1.38
       1354        677.0             0.03               331.67    0.036236      -34.777896      -34.741660      -34.529797     -1.40
       1355        677.5             0.03               333.41    0.036427      -34.778184      -34.741757      -34.529801     -1.42
       1356        678.0             0.03               334.25    0.036518      -34.778372      -34.741853      -34.529802     -1.42
       1357        678.5             0.03               334.09    0.036501      -34.778448      -34.741946      -34.529799     -1.41
       1358        679.0             0.02               333.29    0.036414      -34.778449      -34.742035      -34.529795     -1.39
       1359        679.5             0.03               332.46    0.036323      -34.778445      -34.742122      -34.529790     -1.37
       1360        680.0             0.03               332.16    0.036290      -34.778500      -34.742210      -34.529788     -1.36
       1361        680.5             0.02               332.63    0.036341      -34.778644      -34.742303      -34.529790     -1.37
       1362        681.0             0.03               333.62    0.036450      -34.778851      -34.742401      -34.529794     -1.39
       1363        681.5             0.03               334.59    0.036555      -34.779058      -34.742503      -34.529799     -1.41
       1364        682.0             0.03               334.88    0.036587      -34.779191      -34.742604      -34.529802     -1.43
       1365        682.5             0.02               334.10    0.036502      -34.779202      -34.742700      -34.529802     -1.43
       1366        683.0             0.03               332.24    0.036299      -34.779087      -34.742788      -34.529800     -1.42
       1367        683.5             0.02               329.64    0.036015      -34.778882      -34.742868      -34.529797     -1.40
       1368        684.0             0.02               326.75    0.035699      -34.778639      -34.742940      -34.529794     -1.39
       1369        684.5             0.02               323.97    0.035395      -34.778400      -34.743005      -34.529793     -1.38
       1370        685.0             0.02               321.57    0.035133      -34.778197      -34.743064      -34.529791     -1.38
       1371        685.5             0.02               319.75    0.034934      -34.778052      -34.743118      -34.529790     -1.37
       1372        686.0             0.02               318.64    0.034813      -34.777984      -34.743170      -34.529790     -1.37
       1373        686.5             0.02               318.26    0.034771      -34.777994      -34.743222      -34.529791     -1.37
       1374        687.0             0.02               318.41    0.034788      -34.778063      -34.743276      -34.529793     -1.38
       1375        687.5             0.02               318.79    0.034829      -34.778160      -34.743330      -34.529794     -1.39
       1376        688.0             0.03               319.17    0.034871      -34.778255      -34.743384      -34.529794     -1.39
       1377        688.5             0.02               319.53    0.034910      -34.778347      -34.743437      -34.529792     -1.38
       1378        689.0             0.02               320.11    0.034974      -34.778465      -34.743490      -34.529790     -1.37
       1379        689.5             0.03               321.26    0.035099      -34.778647      -34.743548      -34.529788     -1.36
       1380        690.0             0.03               323.19    0.035310      -34.778923      -34.743613      -34.529788     -1.36
       1381        690.5             0.02               325.86    0.035602      -34.779290      -34.743688      -34.529790     -1.37
       1382        691.0             0.02               328.95    0.035939      -34.779712      -34.743773      -34.529794     -1.39
       1383        691.5             0.03               331.96    0.036268      -34.780134      -34.743866      -34.529797     -1.40
       1384        692.0             0.03               334.41    0.036536      -34.780501      -34.743965      -34.529800     -1.42
       1385        692.5             0.02               336.02    0.036711      -34.780778      -34.744066      -34.529801     -1.42
       1386        693.0             0.03               336.69    0.036785      -34.780953      -34.744168      -34.529800     -1.42
       1387        693.5             0.04               336.53    0.036767      -34.781037      -34.744270      -34.529799     -1.41
       1388        694.0             0.03               335.71    0.036678      -34.781047      -34.744369      -34.529798     -1.41
       1389        694.5             0.02               334.39    0.036534      -34.780999      -34.744465      -34.529797     -1.40
       1390        695.0             0.02               332.69    0.036348      -34.780903      -34.744555      -34.529797     -1.40
       1391        695.5             0.02               330.72    0.036133      -34.780773      -34.744640      -34.529796     -1.40
       1392        696.0             0.02               328.65    0.035907      -34.780626      -34.744719      -34.529794     -1.39
       1393        696.5             0.03               326.69    0.035693      -34.780485      -34.744793      -34.529793     -1.38
       1394        697.0             0.03               324.98    0.035506      -34.780368      -34.744862      -34.529792     -1.38
       1395        697.5             0.02               323.60    0.035355      -34.780283      -34.744928      -34.529792     -1.38
       1396        698.0             0.03               322.54    0.035239      -34.780230      -34.744991      -34.529792     -1.38
       1397        698.5             0.02               321.80    0.035158      -34.780210      -34.745052      -34.529792     -1.38
       1398        699.0             0.02               321.40    0.035115      -34.780226      -34.745111      -34.529791     -1.38
       1399        699.5             0.02               321.42    0.035117      -34.780288      -34.745171      -34.529791     -1.37
       1400        700.0             0.02               321.94    0.035173      -34.780405      -34.745231      -34.529790     -1.37
       1401        700.5             0.03               323.00    0.035290      -34.780586      -34.745296      -34.529790     -1.37
       1402        701.0             0.02               324.64    0.035469      -34.780834      -34.745365      -34.529790     -1.37
       1403        701.5             0.02               326.81    0.035706      -34.781147      -34.745441      -34.529791     -1.38
       1404        702.0             0.03               329.39    0.035987      -34.781512      -34.745525      -34.529793     -1.38
       1405        702.5             0.02               332.15    0.036289      -34.781906      -34.745617      -34.529794     -1.39
       1406        703.0             0.03               334.87    0.036586      -34.782302      -34.745716      -34.529796     -1.40
       1407        703.5             0.02               337.32    0.036854      -34.782676      -34.745822      -34.529797     -1.40
       1408        704.0             0.02               339.30    0.037071      -34.783004      -34.745934      -34.529799     -1.41
       1409        704.5             0.03               340.66    0.037219      -34.783267      -34.746049      -34.529800     -1.42
       1410        705.0             0.02               341.29    0.037287      -34.783451      -34.746164      -34.529800     -1.42
       1411        705.5             0.02               341.23    0.037281      -34.783559      -34.746278      -34.529798     -1.41
       1412        706.0             0.02               340.74    0.037227      -34.783617      -34.746390      -34.529796     -1.40
       1413        706.5             0.02               340.13    0.037161      -34.783661      -34.746501      -34.529794     -1.39
       1414        707.0             0.03               339.63    0.037106      -34.783718      -34.746612      -34.529794     -1.39
       1415        707.5             0.02               339.21    0.037060      -34.783784      -34.746723      -34.529796     -1.40
       1416        708.0             0.02               338.62    0.036996      -34.783830      -34.746834      -34.529799     -1.41
       1417        708.5             0.02               337.52    0.036876      -34.783817      -34.746941      -34.529800     -1.42
       1418        709.0             0.03               335.75    0.036683      -34.783723      -34.747040      -34.529800     -1.41
       1419        709.5             0.03               333.40    0.036426      -34.783557      -34.747131      -34.529797     -1.40
       1420        710.0             0.02               330.87    0.036149      -34.783362      -34.747214      -34.529793     -1.38
       1421        710.5             0.03               328.67    0.035909      -34.783200      -34.747290      -34.529789     -1.37
       1422        711.0             0.02               327.29    0.035758      -34.783123      -34.747366      -34.529788     -1.36
       1423        711.5             0.03               326.87    0.035712      -34.783154      -34.747442      -34.529790     -1.37
       1424        712.0             0.03               327.22    0.035751      -34.783273      -34.747522      -34.529793     -1.38
       1425        712.5             0.03               327.89    0.035824      -34.783428      -34.747604      -34.529797     -1.40
       1426        713.0             0.03               328.41    0.035880      -34.783566      -34.747685      -34.529799     -1.41
       1427        713.5             0.03               328.55    0.035895      -34.783660      -34.747765      -34.529798     -1.41
       1428        714.0             0.02               328.34    0.035872      -34.783715      -34.747843      -34.529797     -1.40
       1429        714.5             0.03               327.99    0.035834      -34.783754      -34.747920      -34.529795     -1.40
       1430        715.0             0.03               327.72    0.035805      -34.783801      -34.747997      -34.529795     -1.39
       1431        715.5             0.03               327.67    0.035799      -34.783873      -34.748074      -34.529794     -1.39
       1432        716.0             0.03               327.92    0.035827      -34.783979      -34.748152      -34.529794     -1.39
       1433        716.5             0.03               328.46    0.035885      -34.784118      -34.748233      -34.529795     -1.39
       1434        717.0             0.03               329.10    0.035956      -34.784272      -34.748317      -34.529797     -1.40
       1435        717.5             0.03               329.49    0.035998      -34.784401      -34.748402      -34.529801     -1.42
       1436        718.0             0.03               329.18    0.035964      -34.784451      -34.748487      -34.529803     -1.43
       1437        718.5             0.02               327.86    0.035820      -34.784385      -34.748565      -34.529803     -1.43
       1438        719.0             0.03               325.56    0.035569      -34.784202      -34.748633      -34.529800     -1.42
       1439        719.5             0.03               322.72    0.035259      -34.783951      -34.748691      -34.529795     -1.39
       1440        720.0             0.03               320.09    0.034971      -34.783714      -34.748742      -34.529789     -1.37
       1441        720.5             0.02               318.37    0.034783      -34.783574      -34.748791      -34.529786     -1.35
       1442        721.0             0.03               317.93    0.034735      -34.783577      -34.748842      -34.529788     -1.36
       1443        721.5             0.02               318.56    0.034804      -34.783704      -34.748899      -34.529793     -1.38
       1444        722.0             0.03               319.59    0.034917      -34.783878      -34.748961      -34.529799     -1.41
       1445        722.5             0.03               320.16    0.034979      -34.784001      -34.749022      -34.529804     -1.43
       1446        723.0             0.03               319.71    0.034930      -34.784007      -34.749078      -34.529804     -1.44
       1447        723.5             0.03               318.24    0.034769      -34.783893      -34.749125      -34.529800     -1.42
       1448        724.0             0.03               316.31    0.034559      -34.783723      -34.749165      -34.529794     -1.39
       1449        724.5             0.03               314.73    0.034386      -34.783587      -34.749201      -34.529790     -1.37
       1450        725.0             0.03               314.08    0.034315      -34.783555      -34.749240      -34.529789     -1.37
       1451        725.5             0.03               314.54    0.034365      -34.783647      -34.749282      -34.529791     -1.37
       1452        726.0             0.03               315.87    0.034510      -34.783839      -34.749329      -34.529793     -1.39
       1453        726.5             0.03               317.65    0.034705      -34.784087      -34.749382      -34.529797     -1.40
       1454        727.0             0.03               319.40    0.034896      -34.784335      -34.749439      -34.529800     -1.41
       1455        727.5             0.03               320.63    0.035031      -34.784531      -34.749500      -34.529802     -1.43
       1456        728.0             0.03               321.00    0.035070      -34.784630      -34.749560      -34.529803     -1.43
       1457        728.5             0.03               320.36    0.035001      -34.784616      -34.749615      -34.529802     -1.42
       1458        729.0             0.03               318.97    0.034849      -34.784513      -34.749664      -34.529797     -1.40
       1459        729.5             0.03               317.43    0.034681      -34.784388      -34.749707      -34.529792     -1.38
       1460        730.0             0.03               316.47    0.034576      -34.784325      -34.749749      -34.529788     -1.36
       1461        730.5             0.03               316.64    0.034595      -34.784390      -34.749795      -34.529787     -1.36
       1462        731.0             0.02               318.03    0.034747      -34.784595      -34.749849      -34.529790     -1.37
       1463        731.5             0.03               320.17    0.034981      -34.784892      -34.749911      -34.529796     -1.40
       1464        732.0             0.03               322.20    0.035202      -34.785183      -34.749981      -34.529803     -1.43
       1465        732.5             0.03               323.21    0.035313      -34.785363      -34.750050      -34.529808     -1.45
       1466        733.0             0.03               322.66    0.035252      -34.785366      -34.750114      -34.529808     -1.45
       1467        733.5             0.03               320.61    0.035028      -34.785195      -34.750167      -34.529803     -1.43
       1468        734.0             0.03               317.74    0.034715      -34.784925      -34.750209      -34.529796     -1.40
       1469        734.5             0.03               315.01    0.034416      -34.784662      -34.750246      -34.529790     -1.37
       1470        735.0             0.03               313.18    0.034216      -34.784497      -34.750280      -34.529788     -1.36
       1471        735.5             0.03               312.56    0.034149      -34.784466      -34.750317      -34.529790     -1.37
       1472        736.0             0.03               312.94    0.034190      -34.784547      -34.750357      -34.529793     -1.39
       1473        736.5             0.03               313.79    0.034283      -34.784683      -34.750400      -34.529797     -1.40
       1474        737.0             0.03               314.49    0.034359      -34.784803      -34.750444      -34.529801     -1.42
       1475        737.5             0.03               314.52    0.034362      -34.784849      -34.750486      -34.529803     -1.43
       1476        738.0             0.03               313.64    0.034267      -34.784790      -34.750523      -34.529802     -1.42
       1477        738.5             0.03               312.00    0.034088      -34.784641      -34.750553      -34.529798     -1.41
       1478        739.0             0.03               310.12    0.033882      -34.784458      -34.750576      -34.529792     -1.38
       1479        739.5             0.03               308.74    0.033732      -34.784327      -34.750595      -34.529787     -1.36
       1480        740.0             0.03               308.57    0.033713      -34.784329      -34.750616      -34.529784     -1.34
       1481        740.5             0.03               309.96    0.033864      -34.784510      -34.750645      -34.529785     -1.35
       1482        741.0             0.03               312.77    0.034172      -34.784857      -34.750685      -34.529789     -1.37
       1483        741.5             0.02               316.39    0.034567      -34.785304      -34.750738      -34.529796     -1.40
       1484        742.0             0.02               319.89    0.034949      -34.785749      -34.750800      -34.529803     -1.43
       1485        742.5             0.02               322.37    0.035220      -34.786087      -34.750867      -34.529807     -1.45
       1486        743.0             0.03               323.27    0.035319      -34.786252      -34.750933      -34.529807     -1.45
       1487        743.5             0.02               322.65    0.035251      -34.786243      -34.750992      -34.529803     -1.43
       1488        744.0             0.02               321.17    0.035089      -34.786133      -34.751044      -34.529795     -1.40
       1489        744.5             0.03               319.82    0.034942      -34.786035      -34.751093      -34.529789     -1.37
       1490        745.0             0.02               319.43    0.034900      -34.786045      -34.751145      -34.529787     -1.36
       1491        745.5             0.03               320.25    0.034989      -34.786194      -34.751205      -34.529790     -1.37
       1492        746.0             0.02               321.83    0.035162      -34.786435      -34.751273      -34.529797     -1.40
       1493        746.5             0.03               323.33    0.035326      -34.786670      -34.751344      -34.529803     -1.43
       1494        747.0             0.02               323.90    0.035388      -34.786802      -34.751415      -34.529806     -1.44
       1495        747.5             0.03               323.08    0.035298      -34.786777      -34.751479      -34.529806     -1.44
       1496        748.0             0.02               320.91    0.035061      -34.786595      -34.751534      -34.529802     -1.43
       1497        748.5             0.02               317.92    0.034734      -34.786313      -34.751578      -34.529797     -1.40
       1498        749.0             0.02               314.85    0.034399      -34.786014      -34.751615      -34.529791     -1.38
       1499        749.5             0.02               312.45    0.034137      -34.785783      -34.751646      -34.529787     -1.36
       1500        750.0             0.02               311.22    0.034003      -34.785678      -34.751676      -34.529786     -1.35
       1501        750.5             0.03               311.32    0.034013      -34.785722      -34.751709      -34.529787     -1.36
       1502        751.0             0.03               312.52    0.034145      -34.785892      -34.751747      -34.529791     -1.37
       1503        751.5             0.03               314.32    0.034341      -34.786133      -34.751792      -34.529796     -1.40
       1504        752.0             0.03               316.05    0.034530      -34.786372      -34.751842      -34.529800     -1.42
       1505        752.5             0.02               317.13    0.034648      -34.786540      -34.751892      -34.529803     -1.43
       1506        753.0             0.03               317.27    0.034663      -34.786603      -34.751940      -34.529802     -1.42
       1507        753.5             0.03               316.68    0.034599      -34.786581      -34.751982      -34.529797     -1.40
       1508        754.0             0.03               316.03    0.034528      -34.786548      -34.752021      -34.529791     -1.38
       1509        754.5             0.03               316.10    0.034536      -34.786597      -34.752062      -34.529787     -1.36
       1510        755.0             0.03               317.40    0.034678      -34.786789      -34.752111      -34.529788     -1.36
       1511        755.5             0.02               319.80    0.034940      -34.787112      -34.752172      -34.529793     -1.38
       1512        756.0             0.02               322.61    0.035247      -34.787488      -34.752242      -34.529799     -1.41
       1513        756.5             0.03               324.95    0.035502      -34.787818      -34.752316      -34.529804     -1.44
       1514        757.0             0.03               326.16    0.035635      -34.788026      -34.752391      -34.529805     -1.44
       1515        757.5             0.03               326.09    0.035627      -34.788089      -34.752462      -34.529804     -1.43
       1516        758.0             0.03               324.96    0.035503      -34.788032      -34.752529      -34.529800     -1.42
       1517        758.5             0.02               323.25    0.035316      -34.787907      -34.752590      -34.529797     -1.40
       1518        759.0             0.02               321.44    0.035118      -34.787766      -34.752648      -34.529794     -1.39
       1519        759.5             0.02               319.91    0.034952      -34.787654      -34.752702      -34.529792     -1.38
       1520        760.0             0.02               318.92    0.034843      -34.787597      -34.752754      -34.529792     -1.38
       1521        760.5             0.02               318.53    0.034801      -34.787608      -34.752806      -34.529792     -1.38
       1522        761.0             0.02               318.72    0.034822      -34.787681      -34.752860      -34.529793     -1.38
       1523        761.5             0.02               319.28    0.034883      -34.787799      -34.752916      -34.529795     -1.39
       1524        762.0             0.03               319.90    0.034951      -34.787925      -34.752974      -34.529798     -1.41
       1525        762.5             0.02               320.27    0.034991      -34.788024      -34.753033      -34.529800     -1.42
       1526        763.0             0.02               320.18    0.034981      -34.788071      -34.753089      -34.529800     -1.41
       1527        763.5             0.02               319.71    0.034930      -34.788072      -34.753142      -34.529797     -1.40
       1528        764.0             0.02               319.27    0.034881      -34.788073      -34.753192      -34.529793     -1.38
       1529        764.5             0.03               319.41    0.034897      -34.788140      -34.753243      -34.529790     -1.37
       1530        765.0             0.02               320.55    0.035021      -34.788322      -34.753300      -34.529789     -1.37
       1531        765.5             0.03               322.70    0.035256      -34.788623      -34.753367      -34.529792     -1.38
       1532        766.0             0.02               325.45    0.035557      -34.788999      -34.753443      -34.529797     -1.40
       1533        766.5             0.02               328.20    0.035857      -34.789382      -34.753525      -34.529800     -1.42
       1534        767.0             0.02               330.47    0.036105      -34.789717      -34.753612      -34.529802     -1.42
       1535        767.5             0.03               332.02    0.036275      -34.789976      -34.753702      -34.529802     -1.42
       1536        768.0             0.02               332.83    0.036363      -34.790156      -34.753793      -34.529801     -1.42
       1537        768.5             0.02               332.97    0.036378      -34.790263      -34.753885      -34.529800     -1.42
       1538        769.0             0.02               332.55    0.036333      -34.790307      -34.753975      -34.529799     -1.41
       1539        769.5             0.02               331.76    0.036246      -34.790308      -34.754062      -34.529797     -1.40
       1540        770.0             0.02               330.85    0.036147      -34.790293      -34.754146      -34.529795     -1.39
       1541        770.5             0.03               330.13    0.036069      -34.790297      -34.754229      -34.529793     -1.39
       1542        771.0             0.02               329.85    0.036038      -34.790350      -34.754312      -34.529793     -1.38
       1543        771.5             0.02               330.06    0.036060      -34.790458      -34.754398      -34.529795     -1.39
       1544        772.0             0.02               330.51    0.036109      -34.790596      -34.754487      -34.529798     -1.41
       1545        772.5             0.02               330.71    0.036132      -34.790709      -34.754577      -34.529803     -1.43
       1546        773.0             0.02               330.12    0.036068      -34.790733      -34.754665      -34.529806     -1.44
       1547        773.5             0.02               328.41    0.035880      -34.790624      -34.754744      -34.529806     -1.44
       1548        774.0             0.02               325.71    0.035585      -34.790397      -34.754812      -34.529801     -1.42
       1549        774.5             0.03               322.68    0.035255      -34.790123      -34.754869      -34.529795     -1.39
       1550        775.0             0.02               320.20    0.034984      -34.789904      -34.754920      -34.529790     -1.37
       1551        775.5             0.03               318.94    0.034846      -34.789818      -34.754972      -34.529788     -1.36
       1552        776.0             0.02               319.05    0.034858      -34.789885      -34.755028      -34.529791     -1.37
       1553        776.5             0.02               320.21    0.034985      -34.790073      -34.755088      -34.529794     -1.39
       1554        777.0             0.03               321.90    0.035169      -34.790322      -34.755153      -34.529798     -1.41
       1555        777.5             0.02               323.59    0.035354      -34.790575      -34.755221      -34.529800     -1.42
       1556        778.0             0.03               324.91    0.035498      -34.790790      -34.755292      -34.529801     -1.42
       1557        778.5             0.02               325.65    0.035578      -34.790943      -34.755364      -34.529801     -1.42
       1558        779.0             0.02               325.80    0.035595      -34.791030      -34.755435      -34.529800     -1.42
       1559        779.5             0.02               325.58    0.035572      -34.791075      -34.755503      -34.529797     -1.40
       1560        780.0             0.03               325.43    0.035555      -34.791126      -34.755571      -34.529793     -1.38
       1561        780.5             0.02               325.84    0.035599      -34.791240      -34.755640      -34.529790     -1.37
       1562        781.0             0.02               327.16    0.035744      -34.791460      -34.755716      -34.529790     -1.37
       1563        781.5             0.02               329.44    0.035993      -34.791795      -34.755801      -34.529792     -1.38
       1564        782.0             0.02               332.28    0.036303      -34.792200      -34.755898      -34.529798     -1.41
       1565        782.5             0.02               334.86    0.036585      -34.792587      -34.756003      -34.529806     -1.44
       1566        783.0             0.03               336.25    0.036737      -34.792847      -34.756110      -34.529811     -1.47
       1567        783.5             0.02               335.75    0.036682      -34.792893      -34.756211      -34.529813     -1.47
       1568        784.0             0.02               333.27    0.036411      -34.792711      -34.756300      -34.529809     -1.46
       1569        784.5             0.02               329.46    0.035995      -34.792370      -34.756375      -34.529800     -1.42
       1570        785.0             0.03               325.45    0.035557      -34.791995      -34.756438      -34.529792     -1.38
       1571        785.5             0.02               322.34    0.035217      -34.791714      -34.756496      -34.529788     -1.36
       1572        786.0             0.03               320.66    0.035034      -34.791589      -34.756555      -34.529789     -1.37
       1573        786.5             0.03               320.25    0.034989      -34.791606      -34.756617      -34.529794     -1.39
       1574        787.0             0.02               320.47    0.035013      -34.791692      -34.756679      -34.529799     -1.41
       1575        787.5             0.03               320.54    0.035020      -34.791761      -34.756741      -34.529803     -1.43
       1576        788.0             0.02               319.87    0.034947      -34.791745      -34.756798      -34.529804     -1.44
       1577        788.5             0.03               318.26    0.034771      -34.791618      -34.756847      -34.529803     -1.43
       1578        789.0             0.02               315.92    0.034516      -34.791403      -34.756888      -34.529798     -1.41
       1579        789.5             0.03               313.43    0.034244      -34.791164      -34.756919      -34.529793     -1.38
       1580        790.0             0.02               311.57    0.034041      -34.790987      -34.756946      -34.529787     -1.36
       1581        790.5             0.02               311.08    0.033987      -34.790960      -34.756974      -34.529783     -1.34
       1582        791.0             0.02               312.42    0.034133      -34.791141      -34.757008      -34.529783     -1.34
       1583        791.5             0.03               315.57    0.034478      -34.791534      -34.757056      -34.529787     -1.36
       1584        792.0             0.02               319.95    0.034957      -34.792076      -34.757119      -34.529795     -1.39
       1585        792.5             0.02               324.50    0.035453      -34.792650      -34.757197      -34.529804     -1.43
       1586        793.0             0.02               327.97    0.035832      -34.793115      -34.757283      -34.529812     -1.47
       1587        793.5             0.03               329.41    0.035990      -34.793358      -34.757368      -34.529814     -1.48
       1588        794.0             0.02               328.57    0.035898      -34.793342      -34.757444      -34.529810     -1.46
       1589        794.5             0.03               326.10    0.035628      -34.793136      -34.757508      -34.529801     -1.42
       1590        795.0             0.03               323.30    0.035323      -34.792886      -34.757563      -34.529791     -1.37
       1591        795.5             0.02               321.50    0.035126      -34.792744      -34.757618      -34.529786     -1.35
       1592        796.0             0.02               321.34    0.035108      -34.792788      -34.757680      -34.529788     -1.36
       1593        796.5             0.02               322.48    0.035233      -34.792984      -34.757751      -34.529796     -1.40
       1594        797.0             0.02               323.91    0.035388      -34.793215      -34.757826      -34.529804     -1.44
       1595        797.5             0.02               324.44    0.035446      -34.793347      -34.757900      -34.529810     -1.46
       1596        798.0             0.02               323.32    0.035324      -34.793290      -34.757966      -34.529810     -1.46
       1597        798.5             0.02               320.46    0.035012      -34.793032      -34.758020      -34.529806     -1.45
       1598        799.0             0.02               316.41    0.034570      -34.792629      -34.758059      -34.529799     -1.41
       1599        799.5             0.02               312.14    0.034103      -34.792188      -34.758085      -34.529791     -1.38
       1600        800.0             0.02               308.74    0.033732      -34.791834      -34.758103      -34.529785     -1.35
       1601        800.5             0.03               307.13    0.033555      -34.791674      -34.758119      -34.529781     -1.33
       1602        801.0             0.03               307.78    0.033627      -34.791768      -34.758141      -34.529781     -1.33
       1603        801.5             0.02               310.61    0.033936      -34.792111      -34.758175      -34.529786     -1.35
       1604        802.0             0.02               314.89    0.034404      -34.792629      -34.758225      -34.529794     -1.39
       1605        802.5             0.02               319.51    0.034908      -34.793196      -34.758289      -34.529803     -1.43
       1606        803.0             0.03               323.23    0.035315      -34.793675      -34.758360      -34.529809     -1.46
       1607        803.5             0.02               325.23    0.035533      -34.793965      -34.758432      -34.529811     -1.47
       1608        804.0             0.02               325.41    0.035553      -34.794052      -34.758498      -34.529806     -1.44
       1609        804.5             0.03               324.54    0.035458      -34.794016      -34.758558      -34.529796     -1.40
       1610        805.0             0.02               323.88    0.035386      -34.794002      -34.758616      -34.529788     -1.36
       1611        805.5             0.03               324.57    0.035461      -34.794143      -34.758682      -34.529785     -1.35
       1612        806.0             0.02               326.93    0.035719      -34.794481      -34.758762      -34.529790     -1.37
       1613        806.5             0.02               330.30    0.036087      -34.794944      -34.758857      -34.529799     -1.41
       1614        807.0             0.02               333.38    0.036423      -34.795383      -34.758960      -34.529809     -1.46
       1615        807.5             0.02               334.84    0.036583      -34.795646      -34.759063      -34.529815     -1.48
       1616        808.0             0.02               333.93    0.036483      -34.795641      -34.759158      -34.529815     -1.48
       1617        808.5             0.03               330.64    0.036124      -34.795364      -34.759239      -34.529810     -1.46
       1618        809.0             0.03               325.68    0.035582      -34.794886      -34.759304      -34.529802     -1.43
       1619        809.5             0.02               320.11    0.034974      -34.794326      -34.759352      -34.529794     -1.39
       1620        810.0             0.02               315.10    0.034426      -34.793813      -34.759387      -34.529787     -1.36
       1621        810.5             0.02               311.53    0.034036      -34.793452      -34.759416      -34.529784     -1.34
       1622        811.0             0.02               309.83    0.033850      -34.793295      -34.759445      -34.529785     -1.35
       1623        811.5             0.02               309.87    0.033855      -34.793331      -34.759477      -34.529789     -1.37
       1624        812.0             0.02               311.02    0.033980      -34.793494      -34.759514      -34.529796     -1.40
       1625        812.5             0.02               312.36    0.034127      -34.793682      -34.759555      -34.529802     -1.43
       1626        813.0             0.02               313.02    0.034199      -34.793795      -34.759596      -34.529806     -1.44
       1627        813.5             0.02               312.51    0.034144      -34.793774      -34.759630      -34.529806     -1.44
       1628        814.0             0.02               310.98    0.033976      -34.793631      -34.759656      -34.529800     -1.42
       1629        814.5             0.03               309.20    0.033781      -34.793454      -34.759673      -34.529792     -1.38
       1630        815.0             0.02               308.34    0.033688      -34.793376      -34.759689      -34.529784     -1.34
       1631        815.5             0.03               309.40    0.033803      -34.793516      -34.759713      -34.529782     -1.33
       1632        816.0             0.03               312.64    0.034158      -34.793910      -34.759752      -34.529786     -1.35
       1633        816.5             0.03               317.43    0.034680      -34.794491      -34.759811      -34.529796     -1.40
       1634        817.0             0.03               322.45    0.035229      -34.795112      -34.759883      -34.529806     -1.44
       1635        817.5             0.02               326.34    0.035654      -34.795618      -34.759964      -34.529812     -1.47
       1636        818.0             0.03               328.23    0.035860      -34.795904      -34.760044      -34.529813     -1.48
       1637        818.5             0.03               327.96    0.035831      -34.795950      -34.760119      -34.529810     -1.46
       1638        819.0             0.03               326.03    0.035621      -34.795806      -34.760186      -34.529804     -1.43
       1639        819.5             0.02               323.31    0.035323      -34.795567      -34.760244      -34.529797     -1.40
       1640        820.0             0.02               320.66    0.035034      -34.795332      -34.760298      -34.529793     -1.38
       1641        820.5             0.03               318.75    0.034825      -34.795173      -34.760348      -34.529791     -1.37
       1642        821.0             0.03               317.83    0.034725      -34.795124      -34.760399      -34.529791     -1.38
       1643        821.5             0.03               317.78    0.034719      -34.795171      -34.760452      -34.529794     -1.39
       1644        822.0             0.02               318.15    0.034760      -34.795267      -34.760507      -34.529799     -1.41
       1645        822.5             0.02               318.34    0.034780      -34.795343      -34.760563      -34.529803     -1.43
       1646        823.0             0.02               317.75    0.034715      -34.795332      -34.760616      -34.529807     -1.45
       1647        823.5             0.02               315.98    0.034522      -34.795184      -34.760662      -34.529807     -1.45
       1648        824.0             0.02               313.03    0.034200      -34.794895      -34.760695      -34.529804     -1.44
       1649        824.5             0.03               309.44    0.033808      -34.794523      -34.760714      -34.529797     -1.40
       1650        825.0             0.02               306.21    0.033455      -34.794178      -34.760724      -34.529789     -1.37
       1651        825.5             0.03               304.42    0.033259      -34.793990      -34.760731      -34.529784     -1.34
       1652        826.0             0.03               304.76    0.033297      -34.794041      -34.760745      -34.529784     -1.34
       1653        826.5             0.02               307.10    0.033552      -34.794323      -34.760771      -34.529791     -1.37
       1654        827.0             0.03               310.58    0.033932      -34.794741      -34.760808      -34.529799     -1.41
       1655        827.5             0.02               314.06    0.034313      -34.795166      -34.760854      -34.529805     -1.44
       1656        828.0             0.03               316.68    0.034599      -34.795501      -34.760903      -34.529807     -1.45
       1657        828.5             0.03               318.10    0.034754      -34.795706      -34.760952      -34.529805     -1.44
       1658        829.0             0.03               318.48    0.034795      -34.795795      -34.761000      -34.529802     -1.43
       1659        829.5             0.03               318.24    0.034770      -34.795818      -34.761048      -34.529799     -1.41
       1660        830.0             0.03               317.89    0.034731      -34.795826      -34.761095      -34.529796     -1.40
       1661        830.5             0.02               317.79    0.034720      -34.795863      -34.761144      -34.529794     -1.39
       1662        831.0             0.03               318.18    0.034762      -34.795956      -34.761194      -34.529794     -1.39
       1663        831.5             0.03               319.11    0.034865      -34.796113      -34.761248      -34.529795     -1.39
       1664        832.0             0.02               320.46    0.035012      -34.796320      -34.761308      -34.529797     -1.40
       1665        832.5             0.03               321.87    0.035166      -34.796540      -34.761374      -34.529801     -1.42
       1666        833.0             0.03               322.79    0.035266      -34.796709      -34.761442      -34.529806     -1.44
       1667        833.5             0.02               322.57    0.035242      -34.796752      -34.761510      -34.529810     -1.46
       1668        834.0             0.03               320.75    0.035044      -34.796612      -34.761569      -34.529811     -1.47
       1669        834.5             0.03               317.36    0.034673      -34.796286      -34.761613      -34.529807     -1.45
       1670        835.0             0.03               313.07    0.034205      -34.795846      -34.761641      -34.529798     -1.41
       1671        835.5             0.03               309.05    0.033765      -34.795423      -34.761658      -34.529790     -1.37
       1672        836.0             0.03               306.41    0.033477      -34.795149      -34.761672      -34.529786     -1.35
       1673        836.5             0.03               305.69    0.033398      -34.795088      -34.761689      -34.529787     -1.36
       1674        837.0             0.02               306.64    0.033502      -34.795215      -34.761713      -34.529793     -1.38
       1675        837.5             0.03               308.48    0.033703      -34.795446      -34.761743      -34.529799     -1.41
       1676        838.0             0.02               310.36    0.033908      -34.795684      -34.761776      -34.529803     -1.43
       1677        838.5             0.03               311.68    0.034052      -34.795862      -34.761810      -34.529804     -1.43
       1678        839.0             0.02               312.23    0.034112      -34.795955      -34.761843      -34.529803     -1.43
       1679        839.5             0.03               312.14    0.034103      -34.795977      -34.761874      -34.529800     -1.42
       1680        840.0             0.03               311.78    0.034064      -34.795968      -34.761904      -34.529796     -1.40
       1681        840.5             0.03               311.68    0.034052      -34.795984      -34.761932      -34.529792     -1.38
       1682        841.0             0.02               312.34    0.034125      -34.796089      -34.761964      -34.529789     -1.37
       1683        841.5             0.03               314.17    0.034325      -34.796328      -34.762003      -34.529788     -1.36
       1684        842.0             0.03               317.24    0.034660      -34.796714      -34.762054      -34.529791     -1.37
       1685        842.5             0.02               321.14    0.035087      -34.797206      -34.762119      -34.529797     -1.40
       1686        843.0             0.02               325.01    0.035509      -34.797706      -34.762198      -34.529806     -1.44
       1687        843.5             0.02               327.69    0.035802      -34.798085      -34.762283      -34.529814     -1.48
       1688        844.0             0.02               328.20    0.035857      -34.798223      -34.762366      -34.529817     -1.50
       1689        844.5             0.02               326.13    0.035631      -34.798067      -34.762436      -34.529815     -1.48
       1690        845.0             0.03               322.00    0.035180      -34.797669      -34.762489      -34.529805     -1.44
       1691        845.5             0.02               317.10    0.034645      -34.797171      -34.762526      -34.529794     -1.39
       1692        846.0             0.02               312.94    0.034190      -34.796745      -34.762554      -34.529787     -1.36
       1693        846.5             0.02               310.51    0.033925      -34.796508      -34.762583      -34.529786     -1.35
       1694        847.0             0.02               309.87    0.033855      -34.796471      -34.762617      -34.529792     -1.38
       1695        847.5             0.02               310.20    0.033891      -34.796544      -34.762653      -34.529800     -1.42
       1696        848.0             0.02               310.37    0.033910      -34.796599      -34.762689      -34.529807     -1.45
       1697        848.5             0.02               309.49    0.033813      -34.796531      -34.762718      -34.529809     -1.46
       1698        849.0             0.02               307.23    0.033567      -34.796302      -34.762736      -34.529806     -1.45
       1699        849.5             0.02               303.89    0.033202      -34.795942      -34.762741      -34.529801     -1.42
       1700        850.0             0.03               300.23    0.032802      -34.795536      -34.762734      -34.529794     -1.39
       1701        850.5             0.03               297.25    0.032476      -34.795196      -34.762720      -34.529787     -1.36
       1702        851.0             0.02               295.88    0.032326      -34.795029      -34.762703      -34.529782     -1.33
       1703        851.5             0.02               296.70    0.032416      -34.795110      -34.762693      -34.529781     -1.33
       1704        852.0             0.02               299.77    0.032751      -34.795448      -34.762697      -34.529785     -1.35
       1705        852.5             0.02               304.46    0.033264      -34.795981      -34.762717      -34.529793     -1.39
       1706        853.0             0.02               309.65    0.033831      -34.796585      -34.762754      -34.529803     -1.43
       1707        853.5             0.02               314.00    0.034306      -34.797108      -34.762802      -34.529811     -1.47
       1708        854.0             0.02               316.42    0.034571      -34.797422      -34.762851      -34.529815     -1.49
       1709        854.5             0.02               316.55    0.034584      -34.797479      -34.762894      -34.529812     -1.47
       1710        855.0             0.02               314.92    0.034407      -34.797334      -34.762927      -34.529803     -1.43
       1711        855.5             0.02               312.84    0.034180      -34.797132      -34.762952      -34.529792     -1.38
       1712        856.0             0.02               311.76    0.034061      -34.797040      -34.762979      -34.529785     -1.35
       1713        856.5             0.02               312.51    0.034143      -34.797158      -34.763015      -34.529786     -1.35
       1714        857.0             0.02               314.90    0.034404      -34.797469      -34.763065      -34.529794     -1.39
       1715        857.5             0.02               317.81    0.034722      -34.797847      -34.763125      -34.529805     -1.44
       1716        858.0             0.02               319.81    0.034941      -34.798129      -34.763188      -34.529813     -1.47
       1717        858.5             0.02               319.83    0.034943      -34.798189      -34.763246      -34.529815     -1.48
       1718        859.0             0.02               317.57    0.034696      -34.797987      -34.763292      -34.529811     -1.47
       1719        859.5             0.02               313.48    0.034249      -34.797571      -34.763322      -34.529804     -1.43
       1720        860.0             0.02               308.62    0.033718      -34.797055      -34.763337      -34.529795     -1.39
       1721        860.5             0.02               304.24    0.033240      -34.796581      -34.763341      -34.529787     -1.36
       1722        861.0             0.02               301.46    0.032936      -34.796276      -34.763340      -34.529782     -1.33
       1723        861.5             0.02               300.90    0.032875      -34.796217      -34.763342      -34.529781     -1.33
       1724        862.0             0.02               302.57    0.033057      -34.796411      -34.763354      -34.529786     -1.35
       1725        862.5             0.02               305.83    0.033414      -34.796791      -34.763377      -34.529793     -1.38
       1726        863.0             0.02               309.63    0.033828      -34.797241      -34.763413      -34.529802     -1.42
       1727        863.5             0.02               312.77    0.034172      -34.797627      -34.763456      -34.529809     -1.46
       1728        864.0             0.02               314.37    0.034347      -34.797845      -34.763498      -34.529811     -1.47
       1729        864.5             0.03               314.19    0.034326      -34.797861      -34.763535      -34.529808     -1.45
       1730        865.0             0.02               312.78    0.034173      -34.797734      -34.763562      -34.529799     -1.41
       1731        865.5             0.02               311.39    0.034021      -34.797604      -34.763583      -34.529789     -1.36
       1732        866.0             0.02               311.42    0.034024      -34.797632      -34.763609      -34.529782     -1.33
       1733        866.5             0.02               313.68    0.034271      -34.797919      -34.763648      -34.529783     -1.34
       1734        867.0             0.02               317.94    0.034737      -34.798444      -34.763707      -34.529792     -1.38
       1735        867.5             0.02               322.96    0.035285      -34.799069      -34.763784      -34.529804     -1.44
       1736        868.0             0.02               327.07    0.035734      -34.799604      -34.763870      -34.529814     -1.48
       1737        868.5             0.02               328.93    0.035937      -34.799892      -34.763954      -34.529818     -1.50
       1738        869.0             0.02               328.06    0.035842      -34.799872      -34.764030      -34.529815     -1.48
       1739        869.5             0.02               324.89    0.035495      -34.799587      -34.764092      -34.529807     -1.45
       1740        870.0             0.02               320.52    0.035018      -34.799158      -34.764140      -34.529798     -1.41
       1741        870.5             0.03               316.27    0.034554      -34.798731      -34.764178      -34.529790     -1.37
       1742        871.0             0.02               313.22    0.034221      -34.798431      -34.764210      -34.529785     -1.35
       1743        871.5             0.03               311.98    0.034085      -34.798329      -34.764244      -34.529785     -1.35
       1744        872.0             0.03               312.52    0.034144      -34.798427      -34.764282      -34.529789     -1.37
       1745        872.5             0.02               314.27    0.034336      -34.798664      -34.764329      -34.529795     -1.40
       1746        873.0             0.02               316.32    0.034559      -34.798941      -34.764382      -34.529803     -1.43
       1747        873.5             0.02               317.67    0.034707      -34.799144      -34.764437      -34.529809     -1.46
       1748        874.0             0.03               317.56    0.034695      -34.799184      -34.764489      -34.529811     -1.47
       1749        874.5             0.02               315.79    0.034502      -34.799032      -34.764530      -34.529808     -1.45
       1750        875.0             0.02               312.91    0.034187      -34.798744      -34.764558      -34.529799     -1.41
       1751        875.5             0.02               310.13    0.033884      -34.798459      -34.764575      -34.529789     -1.36
       1752        876.0             0.02               308.93    0.033752      -34.798345      -34.764593      -34.529781     -1.33
       1753        876.5             0.02               310.29    0.033900      -34.798522      -34.764621      -34.529781     -1.33
       1754        877.0             0.02               314.13    0.034320      -34.798989      -34.764669      -34.529789     -1.37
       1755        877.5             0.02               319.29    0.034884      -34.799620      -34.764735      -34.529801     -1.42
       1756        878.0             0.02               324.10    0.035410      -34.800223      -34.764813      -34.529812     -1.47
       1757        878.5             0.02               327.15    0.035743      -34.800636      -34.764893      -34.529816     -1.49
       1758        879.0             0.03               327.86    0.035820      -34.800789      -34.764969      -34.529813     -1.48
       1759        879.5             0.02               326.55    0.035677      -34.800714      -34.765037      -34.529807     -1.45
       1760        880.0             0.02               324.13    0.035413      -34.800509      -34.765097      -34.529799     -1.41
       1761        880.5             0.02               321.64    0.035140      -34.800292      -34.765151      -34.529793     -1.38
       1762        881.0             0.02               319.90    0.034950      -34.800154      -34.765204      -34.529790     -1.37
       1763        881.5             0.02               319.32    0.034887      -34.800146      -34.765258      -34.529790     -1.37
       1764        882.0             0.02               319.87    0.034947      -34.800264      -34.765317      -34.529793     -1.38
       1765        882.5             0.02               321.11    0.035083      -34.800464      -34.765381      -34.529798     -1.41
       1766        883.0             0.02               322.39    0.035222      -34.800672      -34.765449      -34.529803     -1.43
       1767        883.5             0.02               322.92    0.035281      -34.800799      -34.765518      -34.529809     -1.46
       1768        884.0             0.02               322.08    0.035188      -34.800771      -34.765583      -34.529811     -1.47
       1769        884.5             0.02               319.57    0.034915      -34.800552      -34.765637      -34.529810     -1.46
       1770        885.0             0.02               315.71    0.034493      -34.800168      -34.765675      -34.529804     -1.43
       1771        885.5             0.02               311.38    0.034020      -34.799717      -34.765697      -34.529795     -1.39
       1772        886.0             0.02               307.83    0.033632      -34.799344      -34.765711      -34.529787     -1.36
       1773        886.5             0.02               306.13    0.033446      -34.799171      -34.765725      -34.529784     -1.34
       1774        887.0             0.03               306.61    0.033499      -34.799247      -34.765748      -34.529787     -1.36
       1775        887.5             0.02               308.77    0.033734      -34.799515      -34.765780      -34.529795     -1.39
       1776        888.0             0.02               311.49    0.034032      -34.799852      -34.765820      -34.529803     -1.43
       1777        888.5             0.02               313.70    0.034273      -34.800136      -34.765862      -34.529807     -1.45
       1778        889.0             0.02               314.79    0.034392      -34.800296      -34.765904      -34.529807     -1.45
       1779        889.5             0.02               314.73    0.034386      -34.800328      -34.765942      -34.529804     -1.43
       1780        890.0             0.02               313.95    0.034301      -34.800277      -34.765976      -34.529799     -1.41
       1781        890.5             0.02               313.06    0.034203      -34.800212      -34.766009      -34.529795     -1.39
       1782        891.0             0.02               312.62    0.034155      -34.800196      -34.766041      -34.529792     -1.38
       1783        891.5             0.02               313.07    0.034204      -34.800280      -34.766076      -34.529790     -1.37
       1784        892.0             0.02               314.61    0.034372      -34.800490      -34.766117      -34.529791     -1.37
       1785        892.5             0.02               317.16    0.034651      -34.800819      -34.766168      -34.529793     -1.38
       1786        893.0             0.02               320.33    0.034998      -34.801227      -34.766229      -34.529798     -1.41
       1787        893.5             0.02               323.47    0.035340      -34.801642      -34.766301      -34.529804     -1.43
       1788        894.0             0.02               325.73    0.035587      -34.801967      -34.766379      -34.529810     -1.46
       1789        894.5             0.02               326.37    0.035658      -34.802114      -34.766456      -34.529813     -1.48
       1790        895.0             0.02               325.06    0.035514      -34.802040      -34.766525      -34.529812     -1.47
       1791        895.5             0.02               322.11    0.035193      -34.801773      -34.766580      -34.529805     -1.44
       1792        896.0             0.02               318.52    0.034799      -34.801422      -34.766623      -34.529796     -1.40
       1793        896.5             0.02               315.54    0.034474      -34.801133      -34.766659      -34.529788     -1.36
       1794        897.0             0.02               314.14    0.034321      -34.801019      -34.766697      -34.529787     -1.36
       1795        897.5             0.02               314.49    0.034360      -34.801102      -34.766742      -34.529791     -1.38
       1796        898.0             0.02               315.95    0.034519      -34.801314      -34.766795      -34.529799     -1.41
       1797        898.5             0.02               317.46    0.034685      -34.801535      -34.766850      -34.529806     -1.44
       1798        899.0             0.02               318.11    0.034756      -34.801659      -34.766904      -34.529809     -1.46
       1799        899.5             0.02               317.47    0.034686      -34.801637      -34.766952      -34.529807     -1.45
       1800        900.0             0.02               315.67    0.034489      -34.801480      -34.766991      -34.529803     -1.43
       1801        900.5             0.02               313.27    0.034227      -34.801250      -34.767023      -34.529798     -1.41
       1802        901.0             0.02               311.05    0.033984      -34.801033      -34.767048      -34.529792     -1.38
       1803        901.5             0.02               309.79    0.033846      -34.800918      -34.767072      -34.529788     -1.36
       1804        902.0             0.02               310.03    0.033872      -34.800970      -34.767098      -34.529786     -1.35
       1805        902.5             0.02               311.92    0.034079      -34.801213      -34.767134      -34.529788     -1.36
       1806        903.0             0.02               315.15    0.034432      -34.801613      -34.767181      -34.529794     -1.39
       1807        903.5             0.02               318.92    0.034844      -34.802086      -34.767242      -34.529801     -1.42
       1808        904.0             0.02               322.16    0.035197      -34.802509      -34.767312      -34.529809     -1.46
       1809        904.5             0.02               323.85    0.035382      -34.802766      -34.767384      -34.529814     -1.48
       1810        905.0             0.02               323.45    0.035338      -34.802787      -34.767449      -34.529813     -1.48
       1811        905.5             0.02               321.17    0.035090      -34.802591      -34.767501      -34.529806     -1.45
       1812        906.0             0.02               318.04    0.034747      -34.802288      -34.767541      -34.529796     -1.40
       1813        906.5             0.02               315.44    0.034463      -34.802039      -34.767576      -34.529788     -1.36
       1814        907.0             0.02               314.46    0.034357      -34.801971      -34.767615      -34.529786     -1.35
       1815        907.5             0.02               315.34    0.034452      -34.802115      -34.767663      -34.529791     -1.38
       1816        908.0             0.02               317.33    0.034669      -34.802390      -34.767721      -34.529800     -1.42
       1817        908.5             0.02               319.14    0.034868      -34.802651      -34.767783      -34.529809     -1.46
       1818        909.0             0.02               319.61    0.034919      -34.802761      -34.767842      -34.529813     -1.48
       1819        909.5             0.02               318.17    0.034761      -34.802653      -34.767892      -34.529812     -1.47
       1820        910.0             0.02               314.97    0.034412      -34.802340      -34.767928      -34.529806     -1.44
       1821        910.5             0.02               310.80    0.033957      -34.801907      -34.767950      -34.529798     -1.41
       1822        911.0             0.02               306.73    0.033512      -34.801473      -34.767962      -34.529791     -1.37
       1823        911.5             0.02               303.78    0.033189      -34.801156      -34.767967      -34.529785     -1.35
       1824        912.0             0.02               302.67    0.033068      -34.801040      -34.767973      -34.529784     -1.34
       1825        912.5             0.02               303.59    0.033169      -34.801153      -34.767985      -34.529786     -1.35
       1826        913.0             0.02               306.18    0.033452      -34.801460      -34.768008      -34.529792     -1.38
       1827        913.5             0.02               309.59    0.033824      -34.801867      -34.768043      -34.529800     -1.41
       1828        914.0             0.02               312.72    0.034166      -34.802252      -34.768086      -34.529807     -1.45
       1829        914.5             0.02               314.55    0.034366      -34.802498      -34.768131      -34.529812     -1.47
       1830        915.0             0.02               314.56    0.034368      -34.802539      -34.768171      -34.529811     -1.47
       1831        915.5             0.02               312.98    0.034195      -34.802396      -34.768201      -34.529804     -1.44
       1832        916.0             0.02               310.79    0.033956      -34.802177      -34.768221      -34.529794     -1.39
       1833        916.5             0.02               309.36    0.033800      -34.802039      -34.768239      -34.529786     -1.35
       1834        917.0             0.02               309.79    0.033846      -34.802111      -34.768264      -34.529784     -1.34
       1835        917.5             0.02               312.28    0.034119      -34.802423      -34.768305      -34.529790     -1.37
       1836        918.0             0.02               316.01    0.034526      -34.802886      -34.768360      -34.529800     -1.42
       1837        918.5             0.02               319.50    0.034907      -34.803332      -34.768425      -34.529811     -1.47
       1838        919.0             0.02               321.33    0.035107      -34.803597      -34.768491      -34.529816     -1.49
       1839        919.5             0.02               320.76    0.035044      -34.803592      -34.768548      -34.529816     -1.49
       1840        920.0             0.02               317.89    0.034731      -34.803323      -34.768592      -34.529810     -1.46
       1841        920.5             0.02               313.56    0.034258      -34.802880      -34.768622      -34.529801     -1.42
       1842        921.0             0.02               308.95    0.033754      -34.802393      -34.768639      -34.529793     -1.38
       1843        921.5             0.02               305.20    0.033345      -34.801992      -34.768647      -34.529787     -1.36
       1844        922.0             0.02               303.09    0.033114      -34.801768      -34.768654      -34.529785     -1.35
       1845        922.5             0.02               302.85    0.033088      -34.801752      -34.768664      -34.529787     -1.36
       1846        923.0             0.02               304.12    0.033227      -34.801908      -34.768682      -34.529793     -1.39
       1847        923.5             0.02               306.09    0.033442      -34.802148      -34.768706      -34.529801     -1.42
       1848        924.0             0.02               307.69    0.033617      -34.802352      -34.768735      -34.529808     -1.45
       1849        924.5             0.02               308.01    0.033651      -34.802412      -34.768761      -34.529812     -1.47
       1850        925.0             0.02               306.57    0.033494      -34.802272      -34.768778      -34.529811     -1.46
       1851        925.5             0.02               303.66    0.033177      -34.801958      -34.768782      -34.529804     -1.43
       1852        926.0             0.02               300.34    0.032813      -34.801585      -34.768772      -34.529793     -1.38
       1853        926.5             0.02               298.05    0.032564      -34.801321      -34.768757      -34.529783     -1.34
       1854        927.0             0.02               298.04    0.032562      -34.801311      -34.768748      -34.529780     -1.33
       1855        927.5             0.02               300.64    0.032847      -34.801602      -34.768756      -34.529786     -1.35
       1856        928.0             0.02               305.08    0.033332      -34.802113      -34.768781      -34.529797     -1.40
       1857        928.5             0.02               309.83    0.033850      -34.802670      -34.768820      -34.529808     -1.45
       1858        929.0             0.02               313.33    0.034233      -34.803096      -34.768863      -34.529814     -1.48
       1859        929.5             0.02               314.70    0.034383      -34.803287      -34.768904      -34.529814     -1.48
       1860        930.0             0.02               313.97    0.034303      -34.803241      -34.768938      -34.529808     -1.46
       1861        930.5             0.02               311.91    0.034077      -34.803040      -34.768963      -34.529800     -1.42
       1862        931.0             0.02               309.62    0.033828      -34.802810      -34.768982      -34.529793     -1.38
       1863        931.5             0.02               308.15    0.033667      -34.802668      -34.769001      -34.529788     -1.36
       1864        932.0             0.02               308.11    0.033663      -34.802686      -34.769023      -34.529788     -1.36
       1865        932.5             0.02               309.56    0.033821      -34.802874      -34.769053      -34.529791     -1.37
       1866        933.0             0.02               312.03    0.034091      -34.803183      -34.769092      -34.529797     -1.40
       1867        933.5             0.02               314.64    0.034376      -34.803517      -34.769141      -34.529804     -1.43
       1868        934.0             0.02               316.44    0.034572      -34.803765      -34.769193      -34.529810     -1.46
       1869        934.5             0.02               316.60    0.034591      -34.803833      -34.769242      -34.529813     -1.48
       1870        935.0             0.02               314.80    0.034393      -34.803676      -34.769283      -34.529812     -1.47
       1871        935.5             0.02               311.30    0.034012      -34.803320      -34.769308      -34.529806     -1.44
       1872        936.0             0.02               307.06    0.033548      -34.802866      -34.769319      -34.529796     -1.40
       1873        936.5             0.02               303.38    0.033145      -34.802464      -34.769319      -34.529787     -1.36
       1874        937.0             0.02               301.45    0.032935      -34.802253      -34.769319      -34.529783     -1.34
       1875        937.5             0.02               301.79    0.032972      -34.802299      -34.769327      -34.529786     -1.35
       1876        938.0             0.02               303.98    0.033211      -34.802557      -34.769346      -34.529794     -1.39
       1877        938.5             0.02               306.86    0.033526      -34.802901      -34.769374      -34.529803     -1.43
       1878        939.0             0.02               309.18    0.033779      -34.803185      -34.769406      -34.529809     -1.46
       1879        939.5             0.02               310.13    0.033883      -34.803317      -34.769435      -34.529809     -1.46
       1880        940.0             0.02               309.63    0.033829      -34.803286      -34.769457      -34.529805     -1.44
       1881        940.5             0.02               308.26    0.033678      -34.803153      -34.769474      -34.529799     -1.41
       1882        941.0             0.02               306.84    0.033524      -34.803011      -34.769488      -34.529793     -1.39
       1883        941.5             0.02               306.15    0.033449      -34.802950      -34.769501      -34.529790     -1.37
       1884        942.0             0.02               306.65    0.033503      -34.803023      -34.769520      -34.529789     -1.37
       1885        942.5             0.02               308.37    0.033691      -34.803236      -34.769545      -34.529791     -1.38
       1886        943.0             0.02               310.99    0.033977      -34.803557      -34.769580      -34.529795     -1.40
       1887        943.5             0.02               313.94    0.034299      -34.803923      -34.769624      -34.529800     -1.42
       1888        944.0             0.03               316.51    0.034580      -34.804255      -34.769675      -34.529805     -1.44
       1889        944.5             0.02               318.05    0.034749      -34.804478      -34.769730      -34.529809     -1.46
       1890        945.0             0.02               318.09    0.034753      -34.804535      -34.769782      -34.529811     -1.47
       1891        945.5             0.02               316.49    0.034578      -34.804404      -34.769826      -34.529809     -1.46
       1892        946.0             0.02               313.60    0.034263      -34.804121      -34.769859      -34.529804     -1.43
       1893        946.5             0.02               310.24    0.033896      -34.803776      -34.769880      -34.529796     -1.40
       1894        947.0             0.02               307.45    0.033591      -34.803485      -34.769895      -34.529790     -1.37
       1895        947.5             0.02               306.03    0.033435      -34.803345      -34.769910      -34.529788     -1.36
       1896        948.0             0.02               306.14    0.033448      -34.803379      -34.769931      -34.529792     -1.38
       1897        948.5             0.02               307.26    0.033569      -34.803527      -34.769958      -34.529799     -1.41
       1898        949.0             0.02               308.45    0.033699      -34.803687      -34.769988      -34.529805     -1.44
       1899        949.5             0.02               308.93    0.033752      -34.803767      -34.770015      -34.529807     -1.45
       1900        950.0             0.02               308.41    0.033696      -34.803732      -34.770036      -34.529805     -1.44
       1901        950.5             0.02               307.11    0.033554      -34.803606      -34.770052      -34.529800     -1.42
       1902        951.0             0.02               305.59    0.033387      -34.803450      -34.770063      -34.529796     -1.40
       1903        951.5             0.02               304.48    0.033266      -34.803338      -34.770072      -34.529792     -1.38
       1904        952.0             0.02               304.30    0.033246      -34.803327      -34.770081      -34.529790     -1.37
       1905        952.5             0.02               305.33    0.033359      -34.803455      -34.770096      -34.529789     -1.37
       1906        953.0             0.02               307.61    0.033608      -34.803726      -34.770119      -34.529791     -1.37
       1907        953.5             0.02               310.88    0.033965      -34.804118      -34.770153      -34.529794     -1.39
       1908        954.0             0.02               314.63    0.034375      -34.804574      -34.770199      -34.529799     -1.41
       1909        954.5             0.03               318.14    0.034758      -34.805013      -34.770255      -34.529805     -1.44
       1910        955.0             0.03               320.63    0.035030      -34.805348      -34.770318      -34.529810     -1.46
       1911        955.5             0.02               321.56    0.035132      -34.805511      -34.770379      -34.529811     -1.47
       1912        956.0             0.03               320.87    0.035057      -34.805491      -34.770434      -34.529807     -1.45
       1913        956.5             0.03               319.11    0.034864      -34.805345      -34.770481      -34.529800     -1.42
       1914        957.0             0.03               317.24    0.034660      -34.805183      -34.770522      -34.529794     -1.39
       1915        957.5             0.03               316.19    0.034546      -34.805110      -34.770565      -34.529791     -1.37
       1916        958.0             0.02               316.34    0.034562      -34.805175      -34.770613      -34.529793     -1.38
       1917        958.5             0.02               317.32    0.034669      -34.805337      -34.770668      -34.529800     -1.41
       1918        959.0             0.03               318.27    0.034773      -34.805498      -34.770726      -34.529806     -1.44
       1919        959.5             0.03               318.30    0.034776      -34.805557      -34.770781      -34.529810     -1.46
       1920        960.0             0.02               316.92    0.034625      -34.805452      -34.770827      -34.529809     -1.46
       1921        960.5             0.02               314.16    0.034324      -34.805187      -34.770863      -34.529805     -1.44
       1922        961.0             0.02               310.55    0.033930      -34.804817      -34.770887      -34.529800     -1.42
       1923        961.5             0.02               306.87    0.033527      -34.804427      -34.770901      -34.529794     -1.39
       1924        962.0             0.02               303.91    0.033204      -34.804110      -34.770907      -34.529789     -1.37
       1925        962.5             0.02               302.34    0.033032      -34.803942      -34.770910      -34.529786     -1.35
       1926        963.0             0.03               302.48    0.033048      -34.803965      -34.770918      -34.529786     -1.35
       1927        963.5             0.02               304.27    0.033243      -34.804176      -34.770933      -34.529790     -1.37
       1928        964.0             0.02               307.18    0.033561      -34.804520      -34.770959      -34.529796     -1.40
       1929        964.5             0.02               310.42    0.033915      -34.804909      -34.770995      -34.529802     -1.43
       1930        965.0             0.02               313.08    0.034205      -34.805242      -34.771036      -34.529807     -1.45
       1931        965.5             0.02               314.53    0.034363      -34.805442      -34.771079      -34.529809     -1.46
       1932        966.0             0.02               314.63    0.034375      -34.805492      -34.771116      -34.529806     -1.44
       1933        966.5             0.02               313.90    0.034296      -34.805444      -34.771149      -34.529799     -1.41
       1934        967.0             0.02               313.30    0.034229      -34.805408      -34.771179      -34.529792     -1.38
       1935        967.5             0.02               313.77    0.034281      -34.805494      -34.771214      -34.529788     -1.36
       1936        968.0             0.02               315.75    0.034497      -34.805757      -34.771260      -34.529791     -1.37
       1937        968.5             0.03               318.87    0.034838      -34.806159      -34.771321      -34.529798     -1.41
       1938        969.0             0.02               322.10    0.035191      -34.806582      -34.771391      -34.529807     -1.45
       1939        969.5             0.02               324.25    0.035426      -34.806891      -34.771465      -34.529813     -1.48
       1940        970.0             0.02               324.48    0.035451      -34.806986      -34.771535      -34.529814     -1.48
       1941        970.5             0.02               322.64    0.035250      -34.806845      -34.771595      -34.529811     -1.47
       1942        971.0             0.02               319.20    0.034875      -34.806517      -34.771642      -34.529804     -1.43
       1943        971.5             0.02               315.10    0.034427      -34.806104      -34.771677      -34.529797     -1.40
       1944        972.0             0.02               311.36    0.034017      -34.805720      -34.771703      -34.529791     -1.37
       1945        972.5             0.02               308.77    0.033735      -34.805460      -34.771725      -34.529788     -1.36
       1946        973.0             0.02               307.74    0.033622      -34.805369      -34.771747      -34.529788     -1.36
       1947        973.5             0.02               308.14    0.033666      -34.805440      -34.771774      -34.529792     -1.38
       1948        974.0             0.02               309.41    0.033805      -34.805611      -34.771806      -34.529798     -1.41
       1949        974.5             0.02               310.71    0.033947      -34.805789      -34.771842      -34.529804     -1.44
       1950        975.0             0.02               311.23    0.034003      -34.805881      -34.771878      -34.529808     -1.45
       1951        975.5             0.02               310.45    0.033918      -34.805825      -34.771907      -34.529809     -1.46
       1952        976.0             0.02               308.41    0.033695      -34.805622      -34.771926      -34.529804     -1.44
       1953        976.5             0.02               305.79    0.033409      -34.805344      -34.771935      -34.529796     -1.40
       1954        977.0             0.02               303.72    0.033183      -34.805119      -34.771937      -34.529788     -1.36
       1955        977.5             0.02               303.31    0.033138      -34.805079      -34.771941      -34.529783     -1.34
       1956        978.0             0.02               305.11    0.033334      -34.805293      -34.771958      -34.529786     -1.35
       1957        978.5             0.02               308.74    0.033731      -34.805722      -34.771991      -34.529794     -1.39
       1958        979.0             0.02               313.03    0.034201      -34.806238      -34.772038      -34.529804     -1.44
       1959        979.5             0.02               316.58    0.034588      -34.806680      -34.772092      -34.529812     -1.47
       1960        980.0             0.02               318.34    0.034781      -34.806926      -34.772145      -34.529814     -1.48
       1961        980.5             0.02               318.04    0.034748      -34.806940      -34.772192      -34.529810     -1.46
       1962        981.0             0.02               316.15    0.034541      -34.806772      -34.772231      -34.529804     -1.43
       1963        981.5             0.02               313.59    0.034261      -34.806522      -34.772262      -34.529797     -1.40
       1964        982.0             0.02               311.33    0.034014      -34.806302      -34.772288      -34.529791     -1.38
       1965        982.5             0.02               310.09    0.033878      -34.806193      -34.772314      -34.529789     -1.37
       1966        983.0             0.02               310.10    0.033880      -34.806225      -34.772344      -34.529791     -1.38
       1967        983.5             0.02               311.12    0.033992      -34.806372      -34.772380      -34.529796     -1.40
       1968        984.0             0.02               312.51    0.034143      -34.806564      -34.772421      -34.529801     -1.42
       1969        984.5             0.03               313.47    0.034248      -34.806712      -34.772464      -34.529807     -1.45
       1970        985.0             0.03               313.31    0.034230      -34.806734      -34.772504      -34.529810     -1.46
       1971        985.5             0.03               311.65    0.034049      -34.806586      -34.772536      -34.529809     -1.46
       1972        986.0             0.03               308.65    0.033722      -34.806278      -34.772556      -34.529805     -1.44
       1973        986.5             0.03               305.03    0.033326      -34.805888      -34.772562      -34.529797     -1.40
       1974        987.0             0.02               301.87    0.032981      -34.805541      -34.772559      -34.529789     -1.36
       1975        987.5             0.03               300.30    0.032810      -34.805365      -34.772555      -34.529784     -1.34
       1976        988.0             0.03               300.96    0.032881      -34.805440      -34.772559      -34.529784     -1.34
       1977        988.5             0.03               303.67    0.033178      -34.805753      -34.772575      -34.529791     -1.37
       1978        989.0             0.02               307.52    0.033598      -34.806203      -34.772605      -34.529800     -1.42
       1979        989.5             0.03               311.25    0.034005      -34.806649      -34.772644      -34.529807     -1.45
       1980        990.0             0.03               313.86    0.034291      -34.806977      -34.772685      -34.529810     -1.46
       1981        990.5             0.03               315.02    0.034417      -34.807142      -34.772725      -34.529807     -1.45
       1982        991.0             0.04               315.01    0.034416      -34.807178      -34.772762      -34.529802     -1.42
       1983        991.5             0.03               314.56    0.034367      -34.807164      -34.772797      -34.529796     -1.40
       1984        992.0             0.02               314.42    0.034352      -34.807186      -34.772834      -34.529792     -1.38
       1985        992.5             0.03               315.10    0.034427      -34.807302      -34.772875      -34.529792     -1.38
       1986        993.0             0.03               316.71    0.034602      -34.807526      -34.772924      -34.529794     -1.39
       1987        993.5             0.02               318.95    0.034847      -34.807828      -34.772981      -34.529798     -1.41
       1988        994.0             0.03               321.27    0.035101      -34.808146      -34.773045      -34.529802     -1.43
       1989        994.5             0.03               323.03    0.035293      -34.808407      -34.773114      -34.529806     -1.45
       1990        995.0             0.03               323.66    0.035362      -34.808545      -34.773183      -34.529809     -1.46
       1991        995.5             0.04               322.83    0.035271      -34.808519      -34.773247      -34.529810     -1.46
       1992        996.0             0.03               320.55    0.035022      -34.808325      -34.773303      -34.529807     -1.45
       1993        996.5             0.03               317.21    0.034657      -34.808003      -34.773346      -34.529802     -1.43
       1994        997.0             0.02               313.54    0.034256      -34.807634      -34.773378      -34.529796     -1.40
       1995        997.5             0.03               310.43    0.033916      -34.807318      -34.773402      -34.529791     -1.37
       1996        998.0             0.03               308.57    0.033713      -34.807137      -34.773424      -34.529789     -1.37
       1997        998.5             0.03               308.14    0.033666      -34.807116      -34.773450      -34.529792     -1.38
       1998        999.0             0.03               308.74    0.033731      -34.807211      -34.773480      -34.529798     -1.41
       1999        999.5             0.03               309.58    0.033823      -34.807335      -34.773512      -34.529803     -1.43
       2000       1000.0             0.02               309.96    0.033864      -34.807406      -34.773542      -34.529805     -1.44
       2001       1000.5             0.02               309.57    0.033822      -34.807389      -34.773567      -34.529803     -1.43
       2002       1001.0             0.02               308.64    0.033721      -34.807308      -34.773587      -34.529799     -1.41
       2003       1001.5             0.02               307.71    0.033619      -34.807223      -34.773604      -34.529795     -1.39
       2004       1002.0             0.02               307.35    0.033580      -34.807201      -34.773622      -34.529792     -1.38
       2005       1002.5             0.02               307.96    0.033647      -34.807290      -34.773643      -34.529791     -1.37
       2006       1003.0             0.02               309.63    0.033829      -34.807500      -34.773671      -34.529792     -1.38
       2007       1003.5             0.02               312.17    0.034106      -34.807814      -34.773708      -34.529795     -1.39
       2008       1004.0             0.03               315.19    0.034436      -34.808190      -34.773754      -34.529798     -1.41
       2009       1004.5             0.02               318.22    0.034767      -34.808576      -34.773808      -34.529801     -1.42
       2010       1005.0             0.02               320.78    0.035047      -34.808917      -34.773870      -34.529804     -1.44
       2011       1005.5             0.02               322.48    0.035232      -34.809167      -34.773935      -34.529806     -1.45
       2012       1006.0             0.02               323.08    0.035298      -34.809297      -34.774000      -34.529807     -1.45
       2013       1006.5             0.02               322.58    0.035243      -34.809304      -34.774061      -34.529805     -1.44
       2014       1007.0             0.02               321.27    0.035100      -34.809217      -34.774117      -34.529802     -1.42
       2015       1007.5             0.02               319.64    0.034922      -34.809091      -34.774169      -34.529798     -1.41
       2016       1008.0             0.02               318.21    0.034766      -34.808984      -34.774218      -34.529796     -1.40
       2017       1008.5             0.02               317.25    0.034661      -34.808927      -34.774267      -34.529797     -1.40
       2018       1009.0             0.02               316.62    0.034592      -34.808908      -34.774317      -34.529800     -1.42
       2019       1009.5             0.02               315.91    0.034514      -34.808879      -34.774364      -34.529803     -1.43
       2020       1010.0             0.02               314.68    0.034381      -34.808788      -34.774407      -34.529805     -1.44
       2021       1010.5             0.02               312.75    0.034170      -34.808611      -34.774442      -34.529804     -1.43
       2022       1011.0             0.02               310.26    0.033897      -34.808364      -34.774467      -34.529801     -1.42
       2023       1011.5             0.02               307.59    0.033606      -34.808091      -34.774485      -34.529797     -1.40
       2024       1012.0             0.02               305.22    0.033347      -34.807844      -34.774497      -34.529794     -1.39
       2025       1012.5             0.02               303.54    0.033164      -34.807669      -34.774505      -34.529792     -1.38
       2026       1013.0             0.02               302.79    0.033081      -34.807593      -34.774512      -34.529792     -1.38
       2027       1013.5             0.02               303.02    0.033106      -34.807627      -34.774521      -34.529792     -1.38
       2028       1014.0             0.02               304.13    0.033228      -34.807762      -34.774534      -34.529794     -1.39
       2029       1014.5             0.02               305.91    0.033422      -34.807975      -34.774553      -34.529796     -1.40
       2030       1015.0             0.02               308.01    0.033652      -34.808230      -34.774578      -34.529799     -1.41
       2031       1015.5             0.02               310.05    0.033874      -34.808483      -34.774609      -34.529802     -1.42
       2032       1016.0             0.02               311.62    0.034046      -34.808690      -34.774644      -34.529804     -1.43
       2033       1016.5             0.02               312.47    0.034139      -34.808819      -34.774680      -34.529805     -1.44
       2034       1017.0             0.02               312.57    0.034149      -34.808862      -34.774713      -34.529803     -1.43
       2035       1017.5             0.02               312.17    0.034106      -34.808850      -34.774744      -34.529800     -1.41
       2036       1018.0             0.02               311.72    0.034057      -34.808831      -34.774774      -34.529797     -1.40
       2037       1018.5             0.02               311.60    0.034043      -34.808849      -34.774806      -34.529796     -1.40
       2038       1019.0             0.02               311.87    0.034073      -34.808915      -34.774841      -34.529798     -1.41
       2039       1019.5             0.02               312.25    0.034115      -34.808994      -34.774879      -34.529802     -1.43
       2040       1020.0             0.02               312.23    0.034112      -34.809029      -34.774917      -34.529805     -1.44
       2041       1020.5             0.02               311.37    0.034019      -34.808969      -34.774950      -34.529806     -1.45
       2042       1021.0             0.02               309.54    0.033819      -34.808794      -34.774975      -34.529805     -1.44
       2043       1021.5             0.02               306.92    0.033533      -34.808524      -34.774991      -34.529802     -1.42
       2044       1022.0             0.02               303.98    0.033212      -34.808210      -34.774998      -34.529798     -1.41
       2045       1022.5             0.02               301.27    0.032916      -34.807914      -34.774998      -34.529794     -1.39
       2046       1023.0             0.02               299.30    0.032699      -34.807693      -34.774994      -34.529791     -1.38
       2047       1023.5             0.02               298.36    0.032597      -34.807586      -34.774988      -34.529791     -1.37
       2048       1024.0             0.02               298.54    0.032616      -34.807602      -34.774986      -34.529792     -1.38
       2049       1024.5             0.02               299.62    0.032735      -34.807723      -34.774987      -34.529795     -1.39
       2050       1025.0             0.02               301.22    0.032910      -34.807904      -34.774994      -34.529799     -1.41
       2051       1025.5             0.02               302.82    0.033085      -34.808091      -34.775006      -34.529802     -1.43
       2052       1026.0             0.02               303.97    0.033211      -34.808230      -34.775019      -34.529804     -1.43
       2053       1026.5             0.02               304.45    0.033263      -34.808293      -34.775031      -34.529803     -1.43
       2054       1027.0             0.02               304.38    0.033255      -34.808295      -34.775040      -34.529800     -1.42
       2055       1027.5             0.02               304.28    0.033244      -34.808291      -34.775047      -34.529795     -1.39
       2056       1028.0             0.02               304.80    0.033301      -34.808357      -34.775056      -34.529791     -1.38
       2057       1028.5             0.02               306.44    0.033480      -34.808554      -34.775074      -34.529791     -1.38
       2058       1029.0             0.02               309.16    0.033778      -34.808882      -34.775104      -34.529795     -1.39
       2059       1029.5             0.02               312.39    0.034130      -34.809275      -34.775145      -34.529802     -1.43
       2060       1030.0             0.02               315.19    0.034436      -34.809630      -34.775194      -34.529808     -1.45
       2061       1030.5             0.02               316.75    0.034606      -34.809850      -34.775244      -34.529811     -1.47
       2062       1031.0             0.02               316.69    0.034600      -34.809890      -34.775289      -34.529810     -1.46
       2063       1031.5             0.02               315.21    0.034439      -34.809766      -34.775328      -34.529805     -1.44
       2064       1032.0             0.02               312.90    0.034186      -34.809544      -34.775358      -34.529800     -1.42
       2065       1032.5             0.02               310.50    0.033923      -34.809306      -34.775383      -34.529795     -1.39
       2066       1033.0             0.02               308.63    0.033719      -34.809124      -34.775405      -34.529793     -1.38
       2067       1033.5             0.02               307.61    0.033608      -34.809035      -34.775427      -34.529793     -1.39
       2068       1034.0             0.02               307.39    0.033583      -34.809033      -34.775450      -34.529796     -1.40
       2069       1034.5             0.02               307.58    0.033604      -34.809079      -34.775475      -34.529800     -1.42
       2070       1035.0             0.02               307.64    0.033612      -34.809112      -34.775500      -34.529803     -1.43
       2071       1035.5             0.02               307.08    0.033550      -34.809073      -34.775522      -34.529806     -1.44
       2072       1036.0             0.02               305.62    0.033391      -34.808929      -34.775538      -34.529806     -1.44
       2073       1036.5             0.02               303.34    0.033142      -34.808686      -34.775544      -34.529803     -1.43
       2074       1037.0             0.02               300.71    0.032854      -34.808395      -34.775541      -34.529797     -1.40
       2075       1037.5             0.02               298.44    0.032606      -34.808138      -34.775531      -34.529792     -1.38
       2076       1038.0             0.02               297.33    0.032485      -34.808004      -34.775520      -34.529788     -1.36
       2077       1038.5             0.02               297.85    0.032542      -34.808056      -34.775514      -34.529788     -1.36
       2078       1039.0             0.02               299.97    0.032773      -34.808291      -34.775518      -34.529792     -1.38
       2079       1039.5             0.02               303.08    0.033112      -34.808645      -34.775533      -34.529799     -1.41
       2080       1040.0             0.02               306.24    0.033458      -34.809015      -34.775556      -34.529805     -1.44
       2081       1040.5             0.02               308.64    0.033720      -34.809304      -34.775583      -34.529807     -1.45
       2082       1041.0             0.02               309.86    0.033854      -34.809464      -34.775610      -34.529806     -1.45
       2083       1041.5             0.03               310.04    0.033874      -34.809508      -34.775634      -34.529803     -1.43
       2084       1042.0             0.02               309.68    0.033834      -34.809491      -34.775657      -34.529798     -1.41
       2085       1042.5             0.02               309.39    0.033802      -34.809482      -34.775680      -34.529795     -1.39
       2086       1043.0             0.03               309.65    0.033831      -34.809536      -34.775706      -34.529793     -1.39
       2087       1043.5             0.03               310.60    0.033934      -34.809671      -34.775737      -34.529795     -1.39
       2088       1044.0             0.02               312.04    0.034092      -34.809866      -34.775774      -34.529798     -1.41
       2089       1044.5             0.02               313.53    0.034255      -34.810070      -34.775815      -34.529802     -1.42
       2090       1045.0             0.03               314.55    0.034367      -34.810226      -34.775859      -34.529805     -1.44
       2091       1045.5             0.02               314.71    0.034384      -34.810285      -34.775902      -34.529806     -1.44
       2092       1046.0             0.02               313.83    0.034287      -34.810227      -34.775940      -34.529806     -1.44
       2093       1046.5             0.02               312.00    0.034087      -34.810059      -34.775972      -34.529804     -1.43
       2094       1047.0             0.02               309.55    0.033819      -34.809814      -34.775995      -34.529801     -1.42
       2095       1047.5             0.02               306.97    0.033538      -34.809549      -34.776011      -34.529797     -1.40
       2096       1048.0             0.02               304.85    0.033306      -34.809327      -34.776021      -34.529793     -1.39
       2097       1048.5             0.02               303.62    0.033172      -34.809201      -34.776029      -34.529792     -1.38
       2098       1049.0             0.02               303.47    0.033155      -34.809196      -34.776041      -34.529793     -1.38
       2099       1049.5             0.03               304.16    0.033232      -34.809288      -34.776056      -34.529797     -1.40
       2100       1050.0             0.03               305.17    0.033341      -34.809416      -34.776075      -34.529801     -1.42
       2101       1050.5             0.03               305.91    0.033422      -34.809516      -34.776094      -34.529803     -1.43
       2102       1051.0             0.03               306.05    0.033438      -34.809548      -34.776110      -34.529803     -1.43
       2103       1051.5             0.03               305.68    0.033397      -34.809520      -34.776123      -34.529800     -1.41
       2104       1052.0             0.02               305.18    0.033343      -34.809476      -34.776133      -34.529796     -1.40
       2105       1052.5             0.02               305.07    0.033331      -34.809475      -34.776145      -34.529793     -1.38
       2106       1053.0             0.02               305.71    0.033400      -34.809560      -34.776160      -34.529792     -1.38
       2107       1053.5             0.02               307.17    0.033559      -34.809741      -34.776182      -34.529794     -1.39
       2108       1054.0             0.02               309.22    0.033784      -34.809995      -34.776210      -34.529797     -1.40
       2109       1054.5             0.03               311.48    0.034031      -34.810277      -34.776246      -34.529800     -1.41
       2110       1055.0             0.02               313.51    0.034253      -34.810538      -34.776286      -34.529802     -1.43
       2111       1055.5             0.03               314.99    0.034414      -34.810743      -34.776329      -34.529803     -1.43
       2112       1056.0             0.02               315.76    0.034498      -34.810872      -34.776373      -34.529804     -1.43
       2113       1056.5             0.02               315.81    0.034504      -34.810921      -34.776417      -34.529803     -1.43
       2114       1057.0             0.03               315.24    0.034441      -34.810900      -34.776459      -34.529802     -1.43
       2115       1057.5             0.02               314.24    0.034332      -34.810829      -34.776497      -34.529800     -1.42
       2116       1058.0             0.03               313.06    0.034204      -34.810736      -34.776532      -34.529799     -1.41
       2117       1058.5             0.03               311.96    0.034084      -34.810648      -34.776564      -34.529797     -1.40
       2118       1059.0             0.03               311.09    0.033989      -34.810584      -34.776596      -34.529798     -1.41
       2119       1059.5             0.02               310.41    0.033914      -34.810540      -34.776626      -34.529799     -1.41
       2120       1060.0             0.03               309.70    0.033836      -34.810491      -34.776655      -34.529801     -1.42
       2121       1060.5             0.02               308.73    0.033731      -34.810411      -34.776680      -34.529801     -1.42
       2122       1061.0             0.03               307.47    0.033592      -34.810292      -34.776700      -34.529800     -1.42
       2123       1061.5             0.03               306.09    0.033442      -34.810156      -34.776714      -34.529797     -1.40
       2124       1062.0             0.03               304.97    0.033320      -34.810045      -34.776725      -34.529794     -1.39
       2125       1062.5             0.02               304.46    0.033264      -34.810000      -34.776736      -34.529793     -1.38
       2126       1063.0             0.03               304.73    0.033293      -34.810043      -34.776749      -34.529793     -1.38
       2127       1063.5             0.02               305.72    0.033402      -34.810169      -34.776767      -34.529795     -1.39
       2128       1064.0             0.02               307.20    0.033564      -34.810353      -34.776789      -34.529797     -1.40
       2129       1064.5             0.02               308.88    0.033747      -34.810563      -34.776816      -34.529798     -1.41
       2130       1065.0             0.02               310.55    0.033930      -34.810775      -34.776846      -34.529799     -1.41
       2131       1065.5             0.02               312.14    0.034102      -34.810982      -34.776880      -34.529799     -1.41
       2132       1066.0             0.02               313.64    0.034267      -34.811185      -34.776918      -34.529799     -1.41
       2133       1066.5             0.02               315.09    0.034425      -34.811386      -34.776961      -34.529799     -1.41
       2134       1067.0             0.02               316.42    0.034570      -34.811578      -34.777008      -34.529800     -1.42
       2135       1067.5             0.02               317.47    0.034685      -34.811744      -34.777058      -34.529802     -1.42
       2136       1068.0             0.02               318.08    0.034752      -34.811862      -34.777110      -34.529803     -1.43
       2137       1068.5             0.02               318.15    0.034760      -34.811920      -34.777160      -34.529802     -1.43
       2138       1069.0             0.02               317.70    0.034710      -34.811920      -34.777210      -34.529802     -1.43
       2139       1069.5             0.02               316.80    0.034612      -34.811868      -34.777256      -34.529801     -1.42
       2140       1070.0             0.02               315.51    0.034471      -34.811771      -34.777299      -34.529801     -1.42
       2141       1070.5             0.02               313.90    0.034296      -34.811633      -34.777338      -34.529801     -1.42
       2142       1071.0             0.02               312.04    0.034092      -34.811463      -34.777371      -34.529800     -1.42
       2143       1071.5             0.02               310.05    0.033874      -34.811272      -34.777398      -34.529799     -1.41
       2144       1072.0             0.02               308.07    0.033658      -34.811077      -34.777419      -34.529798     -1.41
       2145       1072.5             0.02               306.24    0.033459      -34.810895      -34.777436      -34.529797     -1.40
       2146       1073.0             0.02               304.63    0.033283      -34.810732      -34.777449      -34.529797     -1.40
       2147       1073.5             0.02               303.24    0.033130      -34.810589      -34.777458      -34.529797     -1.40
       2148       1074.0             0.02               302.05    0.033000      -34.810464      -34.777464      -34.529797     -1.40
       2149       1074.5             0.02               301.07    0.032894      -34.810360      -34.777466      -34.529796     -1.40
       2150       1075.0             0.02               300.39    0.032819      -34.810286      -34.777467      -34.529796     -1.40
       2151       1075.5             0.02               300.11    0.032788      -34.810255      -34.777466      -34.529795     -1.39
       2152       1076.0             0.02               300.31    0.032810      -34.810278      -34.777467      -34.529795     -1.39
       2153       1076.5             0.02               300.98    0.032884      -34.810355      -34.777471      -34.529796     -1.40
       2154       1077.0             0.02               301.99    0.032994      -34.810472      -34.777478      -34.529798     -1.41
       2155       1077.5             0.02               303.12    0.033118      -34.810606      -34.777488      -34.529799     -1.41
       2156       1078.0             0.02               304.22    0.033238      -34.810738      -34.777500      -34.529799     -1.41
       2157       1078.5             0.02               305.25    0.033350      -34.810864      -34.777514      -34.529798     -1.41
       2158       1079.0             0.02               306.30    0.033465      -34.810996      -34.777531      -34.529798     -1.41
       2159       1079.5             0.02               307.45    0.033591      -34.811143      -34.777552      -34.529798     -1.41
       2160       1080.0             0.02               308.68    0.033725      -34.811303      -34.777578      -34.529799     -1.41
       2161       1080.5             0.02               309.82    0.033849      -34.811456      -34.777607      -34.529801     -1.42
       2162       1081.0             0.02               310.60    0.033935      -34.811573      -34.777638      -34.529802     -1.43
       2163       1081.5             0.02               310.85    0.033962      -34.811631      -34.777669      -34.529803     -1.43
       2164       1082.0             0.02               310.50    0.033923      -34.811621      -34.777698      -34.529802     -1.43
       2165       1082.5             0.02               309.64    0.033830      -34.811553      -34.777723      -34.529801     -1.42
       2166       1083.0             0.02               308.50    0.033705      -34.811450      -34.777745      -34.529799     -1.41
       2167       1083.5             0.02               307.28    0.033571      -34.811336      -34.777765      -34.529798     -1.41
       2168       1084.0             0.02               306.16    0.033449      -34.811230      -34.777781      -34.529797     -1.40
       2169       1084.5             0.02               305.20    0.033345      -34.811141      -34.777796      -34.529798     -1.41
       2170       1085.0             0.02               304.37    0.033253      -34.811063      -34.777809      -34.529798     -1.41
       2171       1085.5             0.02               303.56    0.033165      -34.810985      -34.777820      -34.529799     -1.41
       2172       1086.0             0.02               302.69    0.033070      -34.810898      -34.777828      -34.529799     -1.41
       2173       1086.5             0.02               301.75    0.032967      -34.810799      -34.777832      -34.529799     -1.41
       2174       1087.0             0.02               300.79    0.032863      -34.810696      -34.777834      -34.529798     -1.41
       2175       1087.5             0.02               299.96    0.032772      -34.810604      -34.777832      -34.529797     -1.40
       2176       1088.0             0.02               299.45    0.032716      -34.810545      -34.777829      -34.529795     -1.40
       2177       1088.5             0.02               299.46    0.032717      -34.810544      -34.777826      -34.529794     -1.39
       2178       1089.0             0.02               300.16    0.032794      -34.810621      -34.777826      -34.529794     -1.39
       2179       1089.5             0.02               301.59    0.032950      -34.810782      -34.777832      -34.529795     -1.39
       2180       1090.0             0.02               303.54    0.033164      -34.811008      -34.777844      -34.529797     -1.40
       2181       1090.5             0.02               305.65    0.033394      -34.811257      -34.777863      -34.529800     -1.42
       2182       1091.0             0.02               307.47    0.033592      -34.811479      -34.777887      -34.529803     -1.43
       2183       1091.5             0.02               308.69    0.033726      -34.811637      -34.777911      -34.529803     -1.43
       2184       1092.0             0.02               309.25    0.033788      -34.811723      -34.777936      -34.529802     -1.42
       2185       1092.5             0.02               309.38    0.033801      -34.811760      -34.777959      -34.529799     -1.41
       2186       1093.0             0.02               309.40    0.033804      -34.811787      -34.777984      -34.529797     -1.40
       2187       1093.5             0.03               309.62    0.033827      -34.811837      -34.778010      -34.529796     -1.40
       2188       1094.0             0.02               310.13    0.033883      -34.811922      -34.778039      -34.529797     -1.40
       2189       1094.5             0.02               310.79    0.033955      -34.812027      -34.778072      -34.529799     -1.41
       2190       1095.0             0.02               311.29    0.034010      -34.812115      -34.778106      -34.529802     -1.42
       2191       1095.5             0.02               311.31    0.034012      -34.812151      -34.778139      -34.529803     -1.43
       2192       1096.0             0.02               310.69    0.033944      -34.812113      -34.778169      -34.529803     -1.43
       2193       1096.5             0.02               309.45    0.033809      -34.812002      -34.778194      -34.529802     -1.42
       2194       1097.0             0.02               307.81    0.033630      -34.811843      -34.778214      -34.529800     -1.41
       2195       1097.5             0.02               306.07    0.033439      -34.811668      -34.778229      -34.529798     -1.41
       2196       1098.0             0.02               304.50    0.033268      -34.811508      -34.778240      -34.529796     -1.40
       2197       1098.5             0.02               303.37    0.033145      -34.811392      -34.778248      -34.529795     -1.39
       2198       1099.0             0.02               302.85    0.033088      -34.811343      -34.778255      -34.529794     -1.39
       2199       1099.5             0.02               303.01    0.033106      -34.811370      -34.778264      -34.529795     -1.39
       2200       1100.0             0.02               303.75    0.033186      -34.811462      -34.778276      -34.529796     -1.40
       2201       1100.5             0.02               304.78    0.033299      -34.811591      -34.778292      -34.529799     -1.41
       2202       1101.0             0.02               305.77    0.033407      -34.811717      -34.778310      -34.529800     -1.42
       2203       1101.5             0.02               306.51    0.033488      -34.811815      -34.778328      -34.529800     -1.42
       2204       1102.0             0.02               307.04    0.033545      -34.811890      -34.778345      -34.529798     -1.41
       2205       1102.5             0.02               307.61    0.033608      -34.811972      -34.778364      -34.529795     -1.40
       2206       1103.0             0.02               308.56    0.033712      -34.812098      -34.778386      -34.529794     -1.39
       2207       1103.5             0.02               310.09    0.033879      -34.812294      -34.778415      -34.529794     -1.39
       2208       1104.0             0.02               312.14    0.034103      -34.812554      -34.778451      -34.529796     -1.40
       2209       1104.5             0.02               314.41    0.034351      -34.812845      -34.778495      -34.529799     -1.41
       2210       1105.0             0.02               316.45    0.034574      -34.813118      -34.778544      -34.529802     -1.43
       2211       1105.5             0.02               317.89    0.034731      -34.813327      -34.778595      -34.529804     -1.43
       2212       1106.0             0.02               318.52    0.034800      -34.813447      -34.778647      -34.529804     -1.43
       2213       1106.5             0.02               318.35    0.034781      -34.813479      -34.778698      -34.529803     -1.43
       2214       1107.0             0.02               317.57    0.034696      -34.813441      -34.778745      -34.529801     -1.42
       2215       1107.5             0.02               316.39    0.034567      -34.813357      -34.778790      -34.529800     -1.42
       2216       1108.0             0.02               315.00    0.034415      -34.813247      -34.778832      -34.529800     -1.41
       2217       1108.5             0.02               313.49    0.034251      -34.813120      -34.778869      -34.529799     -1.41
       2218       1109.0             0.02               311.92    0.034079      -34.812981      -34.778903      -34.529799     -1.41
       2219       1109.5             0.02               310.28    0.033899      -34.812831      -34.778932      -34.529800     -1.41
       2220       1110.0             0.02               308.53    0.033709      -34.812665      -34.778956      -34.529800     -1.42
       2221       1110.5             0.02               306.65    0.033503      -34.812477      -34.778974      -34.529800     -1.42
       2222       1111.0             0.02               304.63    0.033282      -34.812268      -34.778986      -34.529799     -1.41
       2223       1111.5             0.02               302.61    0.033061      -34.812053      -34.778991      -34.529797     -1.40
       2224       1112.0             0.02               300.87    0.032871      -34.811862      -34.778991      -34.529794     -1.39
       2225       1112.5             0.02               299.75    0.032749      -34.811738      -34.778988      -34.529792     -1.38
       2226       1113.0             0.02               299.53    0.032726      -34.811712      -34.778986      -34.529791     -1.38
       2227       1113.5             0.02               300.27    0.032806      -34.811794      -34.778988      -34.529792     -1.38
       2228       1114.0             0.02               301.75    0.032968      -34.811964      -34.778996      -34.529795     -1.39
       2229       1114.5             0.02               303.61    0.033171      -34.812180      -34.779009      -34.529798     -1.41
       2230       1115.0             0.02               305.43    0.033370      -34.812396      -34.779026      -34.529800     -1.42
       2231       1115.5             0.02               306.92    0.033533      -34.812579      -34.779046      -34.529801     -1.42
       2232       1116.0             0.02               308.05    0.033656      -34.812723      -34.779067      -34.529799     -1.41
       2233       1116.5             0.03               309.01    0.033761      -34.812851      -34.779090      -34.529797     -1.40
       2234       1117.0             0.02               310.08    0.033878      -34.812995      -34.779117      -34.529796     -1.40
       2235       1117.5             0.02               311.44    0.034026      -34.813176      -34.779150      -34.529796     -1.40
       2236       1118.0             0.02               313.02    0.034199      -34.813388      -34.779189      -34.529799     -1.41
       2237       1118.5             0.02               314.52    0.034363      -34.813596      -34.779232      -34.529802     -1.42
       2238       1119.0             0.02               315.51    0.034471      -34.813750      -34.779278      -34.529804     -1.44
       2239       1119.5             0.02               315.64    0.034486      -34.813809      -34.779323      -34.529805     -1.44
       2240       1120.0             0.02               314.80    0.034393      -34.813757      -34.779364      -34.529804     -1.44
       2241       1120.5             0.02               313.10    0.034208      -34.813607      -34.779398      -34.529802     -1.43
       2242       1121.0             0.02               310.87    0.033965      -34.813391      -34.779426      -34.529799     -1.41
       2243       1121.5             0.02               308.53    0.033708      -34.813155      -34.779447      -34.529796     -1.40
       2244       1122.0             0.02               306.47    0.033483      -34.812946      -34.779463      -34.529794     -1.39
       2245       1122.5             0.02               304.98    0.033320      -34.812796      -34.779476      -34.529793     -1.39
       2246       1123.0             0.02               304.16    0.033231      -34.812720      -34.779488      -34.529794     -1.39
       2247       1123.5             0.02               303.91    0.033204      -34.812705      -34.779501      -34.529796     -1.40
       2248       1124.0             0.02               303.95    0.033208      -34.812722      -34.779515      -34.529798     -1.41
       2249       1124.5             0.02               303.94    0.033207      -34.812734      -34.779527      -34.529800     -1.42
       2250       1125.0             0.02               303.66    0.033176      -34.812714      -34.779538      -34.529800     -1.42
       2251       1125.5             0.02               303.10    0.033115      -34.812660      -34.779545      -34.529798     -1.41
       2252       1126.0             0.02               302.54    0.033054      -34.812602      -34.779549      -34.529795     -1.39
       2253       1126.5             0.02               302.40    0.033039      -34.812591      -34.779552      -34.529792     -1.38
       2254       1127.0             0.02               303.12    0.033117      -34.812677      -34.779559      -34.529791     -1.37
       2255       1127.5             0.02               304.86    0.033307      -34.812882      -34.779574      -34.529792     -1.38
       2256       1128.0             0.02               307.39    0.033584      -34.813183      -34.779599      -34.529796     -1.40
       2257       1128.5             0.02               310.17    0.033887      -34.813520      -34.779632      -34.529801     -1.42
       2258       1129.0             0.02               312.55    0.034148      -34.813819      -34.779671      -34.529804     -1.44
       2259       1129.5             0.02               314.07    0.034314      -34.814026      -34.779711      -34.529805     -1.44
       2260       1130.0             0.02               314.59    0.034371      -34.814122      -34.779751      -34.529804     -1.43
       2261       1130.5             0.02               314.28    0.034336      -34.814125      -34.779789      -34.529802     -1.42
       2262       1131.0             0.03               313.46    0.034247      -34.814071      -34.779824      -34.529799     -1.41
       2263       1131.5             0.02               312.51    0.034143      -34.814000      -34.779857      -34.529797     -1.40
       2264       1132.0             0.02               311.66    0.034051      -34.813940      -34.779889      -34.529797     -1.40
       2265       1132.5             0.02               311.03    0.033981      -34.813902      -34.779920      -34.529797     -1.40
       2266       1133.0             0.02               310.57    0.033931      -34.813882      -34.779951      -34.529798     -1.41
       2267       1133.5             0.02               310.12    0.033882      -34.813863      -34.779981      -34.529800     -1.41
       2268       1134.0             0.02               309.46    0.033810      -34.813819      -34.780009      -34.529801     -1.42
       2269       1134.5             0.02               308.40    0.033694      -34.813727      -34.780033      -34.529802     -1.42
       2270       1135.0             0.03               306.86    0.033526      -34.813578      -34.780052      -34.529801     -1.42
       2271       1135.5             0.02               304.96    0.033318      -34.813382      -34.780063      -34.529799     -1.41
       2272       1136.0             0.03               303.02    0.033106      -34.813175      -34.780068      -34.529796     -1.40
       2273       1136.5             0.02               301.49    0.032940      -34.813009      -34.780069      -34.529792     -1.38
       2274       1137.0             0.02               300.81    0.032865      -34.812935      -34.780070      -34.529791     -1.37
       2275       1137.5             0.03               301.19    0.032906      -34.812980      -34.780074      -34.529791     -1.38
       2276       1138.0             0.03               302.50    0.033050      -34.813134      -34.780084      -34.529794     -1.39
       2277       1138.5             0.03               304.38    0.033255      -34.813354      -34.780100      -34.529798     -1.41
       2278       1139.0             0.03               306.32    0.033467      -34.813587      -34.780120      -34.529800     -1.42
       2279       1139.5             0.02               307.98    0.033648      -34.813791      -34.780143      -34.529801     -1.42
       2280       1140.0             0.03               309.23    0.033785      -34.813953      -34.780168      -34.529800     -1.42
       2281       1140.5             0.02               310.17    0.033888      -34.814083      -34.780195      -34.529799     -1.41
       2282       1141.0             0.02               310.99    0.033977      -34.814202      -34.780225      -34.529798     -1.41
       2283       1141.5             0.02               311.81    0.034067      -34.814324      -34.780258      -34.529797     -1.40
       2284       1142.0             0.02               312.68    0.034162      -34.814456      -34.780294      -34.529798     -1.41
       2285       1142.5             0.02               313.56    0.034258      -34.814590      -34.780332      -34.529798     -1.41
       2286       1143.0             0.03               314.34    0.034343      -34.814717      -34.780373      -34.529799     -1.41
       2287       1143.5             0.03               314.90    0.034405      -34.814821      -34.780416      -34.529800     -1.42
       2288       1144.0             0.02               315.11    0.034428      -34.814887      -34.780459      -34.529801     -1.42
       2289       1144.5             0.02               314.84    0.034397      -34.814899      -34.780502      -34.529802     -1.43
       2290       1145.0             0.02               313.98    0.034304      -34.814845      -34.780541      -34.529802     -1.43
       2291       1145.5             0.02               312.53    0.034145      -34.814721      -34.780576      -34.529802     -1.42
       2292       1146.0             0.02               310.60    0.033935      -34.814538      -34.780604      -34.529800     -1.42
       2293       1146.5             0.02               308.45    0.033700      -34.814325      -34.780625      -34.529798     -1.41
       2294       1147.0             0.02               306.39    0.033475      -34.814116      -34.780641      -34.529796     -1.40
       2295       1147.5             0.02               304.70    0.033290      -34.813943      -34.780653      -34.529795     -1.39
       2296       1148.0             0.02               303.51    0.033160      -34.813823      -34.780663      -34.529795     -1.39
       2297       1148.5             0.02               302.76    0.033078      -34.813751      -34.780672      -34.529796     -1.40
       2298       1149.0             0.02               302.32    0.033030      -34.813710      -34.780680      -34.529797     -1.40
       2299       1149.5             0.02               302.05    0.033001      -34.813686      -34.780686      -34.529797     -1.40
       2300       1150.0             0.02               301.93    0.032988      -34.813678      -34.780690      -34.529797     -1.40
       2301       1150.5             0.02               302.01    0.032996      -34.813691      -34.780695      -34.529796     -1.40
       2302       1151.0             0.03               302.35    0.033033      -34.813735      -34.780702      -34.529796     -1.40
       2303       1151.5             0.03               302.99    0.033103      -34.813813      -34.780710      -34.529796     -1.40
       2304       1152.0             0.02               303.91    0.033204      -34.813925      -34.780721      -34.529796     -1.40
       2305       1152.5             0.02               305.11    0.033335      -34.814070      -34.780735      -34.529796     -1.40
       2306       1153.0             0.02               306.58    0.033496      -34.814249      -34.780753      -34.529796     -1.40
       2307       1153.5             0.02               308.33    0.033687      -34.814464      -34.780777      -34.529796     -1.40
       2308       1154.0             0.03               310.29    0.033901      -34.814708      -34.780807      -34.529797     -1.40
       2309       1154.5             0.02               312.29    0.034119      -34.814963      -34.780843      -34.529799     -1.41
       2310       1155.0             0.02               314.06    0.034312      -34.815198      -34.780885      -34.529801     -1.42
       2311       1155.5             0.02               315.30    0.034448      -34.815378      -34.780930      -34.529803     -1.43
       2312       1156.0             0.02               315.80    0.034503      -34.815477      -34.780974      -34.529803     -1.43
       2313       1156.5             0.02               315.52    0.034472      -34.815489      -34.781017      -34.529802     -1.43
       2314       1157.0             0.02               314.64    0.034376      -34.815431      -34.781056      -34.529800     -1.42
       2315       1157.5             0.02               313.44    0.034245      -34.815336      -34.781091      -34.529798     -1.41
       2316       1158.0             0.02               312.23    0.034112      -34.815237      -34.781125      -34.529797     -1.40
       2317       1158.5             0.03               311.15    0.033994      -34.815150      -34.781156      -34.529797     -1.40
       2318       1159.0             0.03               310.18    0.033889      -34.815074      -34.781186      -34.529798     -1.41
       2319       1159.5             0.02               309.20    0.033781      -34.814994      -34.781212      -34.529800     -1.41
       2320       1160.0             0.02               308.05    0.033656      -34.814891      -34.781235      -34.529800     -1.42
       2321       1160.5             0.02               306.68    0.033506      -34.814760      -34.781254      -34.529800     -1.41
       2322       1161.0             0.02               305.14    0.033338      -34.814605      -34.781267      -34.529798     -1.41
       2323       1161.5             0.02               303.60    0.033170      -34.814445      -34.781275      -34.529796     -1.40
       2324       1162.0             0.02               302.31    0.033029      -34.814308      -34.781279      -34.529794     -1.39
       2325       1162.5             0.02               301.53    0.032944      -34.814226      -34.781282      -34.529793     -1.38
       2326       1163.0             0.02               301.50    0.032940      -34.814226      -34.781285      -34.529792     -1.38
       2327       1163.5             0.02               302.31    0.033029      -34.814321      -34.781292      -34.529792     -1.38
       2328       1164.0             0.02               303.87    0.033199      -34.814504      -34.781305      -34.529794     -1.39
       2329       1164.5             0.02               305.88    0.033419      -34.814743      -34.781325      -34.529797     -1.40
       2330       1165.0             0.02               307.88    0.033637      -34.814987      -34.781350      -34.529801     -1.42
       2331       1165.5             0.02               309.40    0.033804      -34.815183      -34.781379      -34.529803     -1.43
       2332       1166.0             0.02               310.14    0.033885      -34.815292      -34.781408      -34.529804     -1.43
       2333       1166.5             0.02               310.10    0.033880      -34.815314      -34.781434      -34.529801     -1.42
       2334       1167.0             0.02               309.59    0.033824      -34.815281      -34.781457      -34.529798     -1.41
       2335       1167.5             0.03               309.08    0.033768      -34.815248      -34.781480      -34.529795     -1.39
       2336       1168.0             0.02               308.98    0.033758      -34.815262      -34.781504      -34.529794     -1.39
       2337       1168.5             0.02               309.38    0.033802      -34.815334      -34.781532      -34.529796     -1.40
       2338       1169.0             0.02               309.99    0.033868      -34.815433      -34.781564      -34.529800     -1.42
       2339       1169.5             0.03               310.29    0.033901      -34.815498      -34.781597      -34.529804     -1.43
       2340       1170.0             0.02               309.80    0.033847      -34.815473      -34.781626      -34.529805     -1.44
       2341       1170.5             0.02               308.28    0.033682      -34.815330      -34.781648      -34.529805     -1.44
       2342       1171.0             0.03               305.90    0.033421      -34.815082      -34.781662      -34.529801     -1.42
       2343       1171.5             0.02               303.06    0.033110      -34.814777      -34.781666      -34.529797     -1.40
       2344       1172.0             0.03               300.33    0.032813      -34.814476      -34.781663      -34.529793     -1.39
       2345       1172.5             0.03               298.25    0.032585      -34.814240      -34.781655      -34.529791     -1.37
       2346       1173.0             0.02               297.17    0.032467      -34.814114      -34.781646      -34.529790     -1.37
       2347       1173.5             0.02               297.22    0.032473      -34.814112      -34.781640      -34.529791     -1.37
       2348       1174.0             0.02               298.21    0.032581      -34.814219      -34.781638      -34.529794     -1.39
       2349       1174.5             0.02               299.73    0.032747      -34.814388      -34.781641      -34.529798     -1.41
       2350       1175.0             0.02               301.20    0.032908      -34.814555      -34.781648      -34.529801     -1.42
       2351       1175.5             0.02               302.15    0.033011      -34.814667      -34.781656      -34.529803     -1.43
       2352       1176.0             0.02               302.36    0.033034      -34.814695      -34.781661      -34.529802     -1.43
       2353       1176.5             0.02               302.04    0.032999      -34.814662      -34.781663      -34.529798     -1.41
       2354       1177.0             0.02               301.73    0.032966      -34.814629      -34.781663      -34.529793     -1.39
       2355       1177.5             0.02               302.09    0.033005      -34.814671      -34.781666      -34.529790     -1.37
       2356       1178.0             0.02               303.54    0.033163      -34.814839      -34.781676      -34.529790     -1.37
       2357       1178.5             0.02               306.02    0.033434      -34.815130      -34.781696      -34.529794     -1.39
       2358       1179.0             0.02               308.99    0.033758      -34.815486      -34.781727      -34.529800     -1.42
       2359       1179.5             0.02               311.63    0.034047      -34.815813      -34.781766      -34.529805     -1.44
       2360       1180.0             0.02               313.20    0.034218      -34.816024      -34.781805      -34.529808     -1.45
       2361       1180.5             0.02               313.31    0.034231      -34.816073      -34.781842      -34.529808     -1.45
       2362       1181.0             0.02               312.05    0.034093      -34.815965      -34.781873      -34.529804     -1.44
       2363       1181.5             0.02               309.86    0.033854      -34.815750      -34.781896      -34.529800     -1.42
       2364       1182.0             0.03               307.42    0.033588      -34.815499      -34.781912      -34.529795     -1.39
       2365       1182.5             0.02               305.36    0.033362      -34.815286      -34.781924      -34.529792     -1.38
       2366       1183.0             0.02               304.11    0.033226      -34.815160      -34.781934      -34.529791     -1.38
       2367       1183.5             0.03               303.80    0.033192      -34.815138      -34.781946      -34.529792     -1.38
       2368       1184.0             0.02               304.19    0.033234      -34.815196      -34.781962      -34.529796     -1.40
       2369       1184.5             0.02               304.78    0.033299      -34.815278      -34.781979      -34.529800     -1.42
       2370       1185.0             0.02               304.97    0.033320      -34.815316      -34.781997      -34.529804     -1.43
       2371       1185.5             0.02               304.32    0.033249      -34.815258      -34.782010      -34.529805     -1.44
       2372       1186.0             0.02               302.73    0.033075      -34.815090      -34.782015      -34.529802     -1.43
       2373       1186.5             0.02               300.58    0.032839      -34.814851      -34.782011      -34.529797     -1.40
       2374       1187.0             0.03               298.57    0.032620      -34.814622      -34.782001      -34.529791     -1.38
       2375       1187.5             0.02               297.52    0.032506      -34.814496      -34.781990      -34.529787     -1.36
       2376       1188.0             0.02               297.99    0.032556      -34.814540      -34.781984      -34.529786     -1.35
       2377       1188.5             0.03               300.00    0.032776      -34.814764      -34.781988      -34.529790     -1.37
       2378       1189.0             0.02               303.04    0.033109      -34.815111      -34.782002      -34.529796     -1.40
       2379       1189.5             0.03               306.24    0.033459      -34.815485      -34.782026      -34.529802     -1.43
       2380       1190.0             0.03               308.76    0.033734      -34.815788      -34.782054      -34.529806     -1.44
       2381       1190.5             0.02               310.09    0.033879      -34.815961      -34.782083      -34.529806     -1.44
       2382       1191.0             0.03               310.22    0.033894      -34.816002      -34.782108      -34.529803     -1.43
       2383       1191.5             0.02               309.61    0.033826      -34.815956      -34.782130      -34.529798     -1.41
       2384       1192.0             0.02               308.89    0.033748      -34.815898      -34.782151      -34.529794     -1.39
       2385       1192.5             0.03               308.67    0.033724      -34.815896      -34.782173      -34.529791     -1.38
       2386       1193.0             0.03               309.27    0.033790      -34.815988      -34.782199      -34.529791     -1.38
       2387       1193.5             0.03               310.66    0.033941      -34.816173      -34.782231      -34.529794     -1.39
       2388       1194.0             0.02               312.44    0.034135      -34.816406      -34.782270      -34.529799     -1.41
       2389       1194.5             0.03               314.00    0.034306      -34.816620      -34.782314      -34.529803     -1.43
       2390       1195.0             0.03               314.75    0.034388      -34.816747      -34.782358      -34.529806     -1.44
       2391       1195.5             0.02               314.32    0.034341      -34.816740      -34.782399      -34.529806     -1.45
       2392       1196.0             0.03               312.68    0.034162      -34.816594      -34.782432      -34.529804     -1.43
       2393       1196.5             0.03               310.22    0.033893      -34.816349      -34.782456      -34.529799     -1.41
       2394       1197.0             0.03               307.62    0.033609      -34.816081      -34.782472      -34.529794     -1.39
       2395       1197.5             0.03               305.61    0.033390      -34.815874      -34.782484      -34.529790     -1.37
       2396       1198.0             0.03               304.72    0.033292      -34.815788      -34.782496      -34.529789     -1.37
       2397       1198.5             0.03               305.02    0.033325      -34.815838      -34.782513      -34.529792     -1.38
       2398       1199.0             0.02               306.15    0.033449      -34.815984      -34.782535      -34.529796     -1.40
       2399       1199.5             0.02               307.46    0.033591      -34.816152      -34.782560      -34.529801     -1.42
       2400       1200.0             0.03               308.30    0.033683      -34.816269      -34.782586      -34.529803     -1.43
       2401       1200.5             0.03               308.34    0.033688      -34.816296      -34.782609      -34.529803     -1.43
       2402       1201.0             0.03               307.69    0.033616      -34.816243      -34.782627      -34.529799     -1.41
       2403       1201.5             0.03               306.77    0.033516      -34.816157      -34.782642      -34.529795     -1.39
       2404       1202.0             0.03               306.13    0.033446      -34.816101      -34.782656      -34.529792     -1.38
       2405       1202.5             0.02               306.18    0.033452      -34.816124      -34.782672      -34.529791     -1.37
       2406       1203.0             0.03               307.08    0.033550      -34.816243      -34.782693      -34.529792     -1.38
       2407       1203.5             0.03               308.67    0.033724      -34.816443      -34.782719      -34.529794     -1.39
       2408       1204.0             0.03               310.59    0.033933      -34.816685      -34.782752      -34.529798     -1.41
       2409       1204.5             0.02               312.39    0.034130      -34.816920      -34.782790      -34.529800     -1.42
       2410       1205.0             0.02               313.67    0.034270      -34.817100      -34.782830      -34.529803     -1.43
       2411       1205.5             0.03               314.16    0.034324      -34.817194      -34.782871      -34.529803     -1.43
       2412       1206.0             0.03               313.79    0.034283      -34.817192      -34.782909      -34.529803     -1.43
       2413       1206.5             0.02               312.67    0.034161      -34.817103      -34.782942      -34.529801     -1.42
       2414       1207.0             0.02               311.12    0.033992      -34.816962      -34.782970      -34.529798     -1.41
       2415       1207.5             0.03               309.56    0.033821      -34.816815      -34.782994      -34.529795     -1.39
       2416       1208.0             0.03               308.35    0.033689      -34.816705      -34.783016      -34.529794     -1.39
       2417       1208.5             0.02               307.70    0.033617      -34.816656      -34.783038      -34.529794     -1.39
       2418       1209.0             0.02               307.49    0.033595      -34.816657      -34.783062      -34.529797     -1.40
       2419       1209.5             0.03               307.42    0.033587      -34.816673      -34.783085      -34.529799     -1.41
       2420       1210.0             0.02               307.10    0.033552      -34.816660      -34.783107      -34.529801     -1.42
       2421       1210.5             0.02               306.30    0.033465      -34.816589      -34.783125      -34.529801     -1.42
       2422       1211.0             0.02               305.04    0.033327      -34.816464      -34.783137      -34.529799     -1.41
       2423       1211.5             0.02               303.58    0.033168      -34.816312      -34.783144      -34.529796     -1.40
       2424       1212.0             0.02               302.30    0.033028      -34.816176      -34.783148      -34.529794     -1.39
       2425       1212.5             0.03               301.53    0.032943      -34.816094      -34.783151      -34.529792     -1.38
       2426       1213.0             0.03               301.47    0.032937      -34.816091      -34.783154      -34.529791     -1.38
       2427       1213.5             0.03               302.19    0.033016      -34.816177      -34.783161      -34.529792     -1.38
       2428       1214.0             0.03               303.61    0.033171      -34.816343      -34.783172      -34.529793     -1.39
       2429       1214.5             0.03               305.51    0.033379      -34.816569      -34.783190      -34.529795     -1.40
       2430       1215.0             0.02               307.59    0.033605      -34.816819      -34.783214      -34.529798     -1.41
       2431       1215.5             0.02               309.43    0.033807      -34.817050      -34.783243      -34.529801     -1.42
       2432       1216.0             0.02               310.70    0.033945      -34.817220      -34.783275      -34.529803     -1.43
       2433       1216.5             0.03               311.18    0.033998      -34.817304      -34.783306      -34.529802     -1.43
       2434       1217.0             0.02               310.98    0.033976      -34.817310      -34.783334      -34.529800     -1.42
       2435       1217.5             0.02               310.43    0.033916      -34.817276      -34.783360      -34.529797     -1.40
       2436       1218.0             0.02               310.01    0.033871      -34.817256      -34.783385      -34.529794     -1.39
       2437       1218.5             0.02               310.10    0.033880      -34.817293      -34.783413      -34.529793     -1.39
       2438       1219.0             0.02               310.74    0.033950      -34.817395      -34.783445      -34.529795     -1.40
       2439       1219.5             0.02               311.63    0.034047      -34.817528      -34.783482      -34.529799     -1.41
       2440       1220.0             0.02               312.23    0.034113      -34.817632      -34.783519      -34.529803     -1.43
       2441       1220.5             0.02               312.07    0.034096      -34.817651      -34.783555      -34.529805     -1.44
       2442       1221.0             0.02               310.92    0.033969      -34.817554      -34.783585      -34.529804     -1.43
       2443       1221.5             0.02               308.87    0.033745      -34.817352      -34.783607      -34.529801     -1.42
       2444       1222.0             0.02               306.30    0.033465      -34.817086      -34.783621      -34.529797     -1.40
       2445       1222.5             0.02               303.76    0.033188      -34.816815      -34.783628      -34.529794     -1.39
       2446       1223.0             0.02               301.77    0.032970      -34.816600      -34.783630      -34.529791     -1.37
       2447       1223.5             0.02               300.71    0.032855      -34.816485      -34.783630      -34.529789     -1.37
       2448       1224.0             0.02               300.74    0.032857      -34.816490      -34.783633      -34.529790     -1.37
       2449       1224.5             0.02               301.68    0.032960      -34.816601      -34.783641      -34.529793     -1.39
       2450       1225.0             0.02               303.12    0.033117      -34.816771      -34.783654      -34.529798     -1.41
       2451       1225.5             0.02               304.47    0.033265      -34.816936      -34.783670      -34.529801     -1.42
       2452       1226.0             0.02               305.24    0.033349      -34.817036      -34.783687      -34.529803     -1.43
       2453       1226.5             0.02               305.19    0.033344      -34.817044      -34.783701      -34.529802     -1.43
       2454       1227.0             0.02               304.53    0.033271      -34.816980      -34.783709      -34.529798     -1.41
       2455       1227.5             0.02               303.80    0.033191      -34.816906      -34.783715      -34.529793     -1.39
       2456       1228.0             0.03               303.69    0.033180      -34.816901      -34.783721      -34.529789     -1.37
       2457       1228.5             0.02               304.71    0.033291      -34.817025      -34.783734      -34.529789     -1.37
       2458       1229.0             0.02               306.90    0.033530      -34.817286      -34.783756      -34.529792     -1.38
       2459       1229.5             0.02               309.81    0.033848      -34.817637      -34.783789      -34.529797     -1.40
       2460       1230.0             0.02               312.66    0.034160      -34.817991      -34.783831      -34.529803     -1.43
       2461       1230.5             0.02               314.66    0.034378      -34.818254      -34.783876      -34.529807     -1.45
       2462       1231.0             0.02               315.29    0.034447      -34.818366      -34.783919      -34.529808     -1.45
       2463       1231.5             0.02               314.46    0.034356      -34.818313      -34.783957      -34.529805     -1.44
       2464       1232.0             0.02               312.54    0.034147      -34.818135      -34.783988      -34.529801     -1.42
       2465       1232.5             0.02               310.19    0.033889      -34.817900      -34.784011      -34.529796     -1.40
       2466       1233.0             0.02               308.11    0.033663      -34.817692      -34.784030      -34.529792     -1.38
       2467       1233.5             0.02               306.87    0.033528      -34.817575      -34.784047      -34.529790     -1.37
       2468       1234.0             0.02               306.69    0.033507      -34.817574      -34.784067      -34.529791     -1.38
       2469       1234.5             0.03               307.34    0.033579      -34.817671      -34.784092      -34.529795     -1.39
       2470       1235.0             0.02               308.29    0.033682      -34.817802      -34.784120      -34.529800     -1.42
       2471       1235.5             0.03               308.79    0.033737      -34.817887      -34.784149      -34.529805     -1.44
       2472       1236.0             0.02               308.27    0.033680      -34.817854      -34.784175      -34.529807     -1.45
       2473       1236.5             0.03               306.48    0.033485      -34.817676      -34.784191      -34.529805     -1.44
       2474       1237.0             0.03               303.74    0.033185      -34.817382      -34.784196      -34.529800     -1.42
       2475       1237.5             0.03               300.80    0.032863      -34.817055      -34.784191      -34.529793     -1.38
       2476       1238.0             0.03               298.59    0.032623      -34.816805      -34.784182      -34.529787     -1.36
       2477       1238.5             0.03               297.91    0.032548      -34.816722      -34.784174      -34.529785     -1.35
       2478       1239.0             0.02               299.01    0.032668      -34.816841      -34.784173      -34.529787     -1.36
       2479       1239.5             0.02               301.51    0.032941      -34.817125      -34.784184      -34.529793     -1.39
       2480       1240.0             0.02               304.53    0.033271      -34.817475      -34.784204      -34.529801     -1.42
       2481       1240.5             0.02               307.05    0.033546      -34.817776      -34.784229      -34.529806     -1.45
       2482       1241.0             0.03               308.29    0.033682      -34.817936      -34.784254      -34.529808     -1.45
       2483       1241.5             0.02               308.01    0.033651      -34.817925      -34.784274      -34.529806     -1.44
       2484       1242.0             0.02               306.55    0.033492      -34.817779      -34.784287      -34.529801     -1.42
       2485       1242.5             0.03               304.66    0.033286      -34.817580      -34.784294      -34.529794     -1.39
       2486       1243.0             0.02               303.21    0.033127      -34.817426      -34.784298      -34.529790     -1.37
       2487       1243.5             0.02               302.83    0.033086      -34.817390      -34.784305      -34.529788     -1.36
       2488       1244.0             0.02               303.71    0.033182      -34.817499      -34.784317      -34.529790     -1.37
       2489       1244.5             0.03               305.53    0.033380      -34.817718      -34.784338      -34.529795     -1.39
       2490       1245.0             0.03               307.56    0.033602      -34.817967      -34.784365      -34.529802     -1.42
       2491       1245.5             0.03               308.92    0.033751      -34.818147      -34.784396      -34.529807     -1.45
       2492       1246.0             0.03               308.88    0.033747      -34.818170      -34.784423      -34.529810     -1.46
       2493       1246.5             0.03               307.15    0.033558      -34.818000      -34.784442      -34.529808     -1.45
       2494       1247.0             0.03               304.01    0.033215      -34.817662      -34.784447      -34.529802     -1.43
       2495       1247.5             0.03               300.28    0.032807      -34.817248      -34.784440      -34.529795     -1.39
       2496       1248.0             0.02               297.04    0.032454      -34.816878      -34.784425      -34.529788     -1.36
       2497       1248.5             0.02               295.24    0.032257      -34.816665      -34.784408      -34.529784     -1.34
       2498       1249.0             0.02               295.28    0.032261      -34.816658      -34.784397      -34.529786     -1.35
       2499       1249.5             0.03               296.87    0.032434      -34.816829      -34.784394      -34.529792     -1.38
       2500       1250.0             0.03               299.13    0.032682      -34.817081      -34.784399      -34.529800     -1.42
       2501       1250.5             0.03               301.04    0.032890      -34.817298      -34.784408      -34.529805     -1.44
       2502       1251.0             0.02               301.84    0.032978      -34.817392      -34.784414      -34.529806     -1.45
       2503       1251.5             0.02               301.40    0.032929      -34.817344      -34.784415      -34.529803     -1.43
       2504       1252.0             0.02               300.15    0.032792      -34.817201      -34.784409      -34.529797     -1.40
       2505       1252.5             0.03               298.92    0.032658      -34.817058      -34.784400      -34.529791     -1.37
       2506       1253.0             0.03               298.53    0.032616      -34.817008      -34.784392      -34.529787     -1.36
       2507       1253.5             0.03               299.51    0.032723      -34.817113      -34.784390      -34.529786     -1.35
       2508       1254.0             0.02               301.89    0.032983      -34.817381      -34.784398      -34.529789     -1.37
       2509       1254.5             0.03               305.21    0.033346      -34.817764      -34.784418      -34.529795     -1.39
       2510       1255.0             0.03               308.71    0.033728      -34.818177      -34.784449      -34.529801     -1.42
       2511       1255.5             0.02               311.52    0.034035      -34.818522      -34.784486      -34.529806     -1.44
       2512       1256.0             0.02               312.97    0.034193      -34.818718      -34.784525      -34.529809     -1.46
       2513       1256.5             0.02               312.75    0.034170      -34.818729      -34.784560      -34.529808     -1.45
       2514       1257.0             0.02               311.09    0.033988      -34.818574      -34.784586      -34.529803     -1.43
       2515       1257.5             0.02               308.62    0.033719      -34.818323      -34.784604      -34.529797     -1.40
       2516       1258.0             0.02               306.21    0.033455      -34.818072      -34.784616      -34.529792     -1.38
       2517       1258.5             0.03               304.58    0.033277      -34.817904      -34.784627      -34.529789     -1.37
       2518       1259.0             0.03               304.03    0.033217      -34.817857      -34.784640      -34.529791     -1.37
       2519       1259.5             0.03               304.32    0.033248      -34.817905      -34.784657      -34.529796     -1.40
       2520       1260.0             0.03               304.77    0.033298      -34.817973      -34.784675      -34.529801     -1.42
       2521       1260.5             0.03               304.68    0.033288      -34.817980      -34.784692      -34.529804     -1.44
       2522       1261.0             0.03               303.60    0.033170      -34.817871      -34.784702      -34.529804     -1.44
       2523       1261.5             0.03               301.57    0.032948      -34.817650      -34.784702      -34.529801     -1.42
       2524       1262.0             0.04               299.07    0.032675      -34.817369      -34.784695      -34.529795     -1.39
       2525       1262.5             0.03               296.82    0.032429      -34.817110      -34.784681      -34.529790     -1.37
       2526       1263.0             0.04               295.50    0.032285      -34.816950      -34.784665      -34.529787     -1.36
       2527       1263.5             0.05               295.52    0.032287      -34.816939      -34.784652      -34.529786     -1.35
       2528       1264.0             0.07               296.94    0.032442      -34.817087      -34.784645      -34.529788     -1.36
       2529       1264.5             0.05               299.45    0.032716      -34.817363      -34.784647      -34.529792     -1.38
       2530       1265.0             0.03               302.53    0.033053      -34.817712      -34.784659      -34.529796     -1.40
       2531       1265.5             0.03               305.56    0.033384      -34.818062      -34.784678      -34.529800     -1.42
       2532       1266.0             0.06               307.99    0.033649      -34.818352      -34.784703      -34.529803     -1.43
       2533       1266.5             0.04               309.47    0.033811      -34.818541      -34.784730      -34.529803     -1.43
       2534       1267.0             0.05               310.01    0.033870      -34.818627      -34.784756      -34.529801     -1.42
       2535       1267.5             0.03               309.91    0.033859      -34.818640      -34.784780      -34.529798     -1.41
       2536       1268.0             0.03               309.65    0.033831      -34.818635      -34.784804      -34.529794     -1.39
       2537       1268.5             0.03               309.71    0.033837      -34.818667      -34.784830      -34.529793     -1.38
       2538       1269.0             0.03               310.29    0.033900      -34.818760      -34.784859      -34.529794     -1.39
       2539       1269.5             0.03               311.24    0.034005      -34.818899      -34.784894      -34.529797     -1.40
       2540       1270.0             0.04               312.12    0.034100      -34.819033      -34.784932      -34.529801     -1.42
       2541       1270.5             0.04               312.35    0.034126      -34.819096      -34.784970      -34.529804     -1.44
       2542       1271.0             0.03               311.55    0.034039      -34.819042      -34.785003      -34.529805     -1.44
       2543       1271.5             0.03               309.63    0.033828      -34.818856      -34.785028      -34.529803     -1.43
       2544       1272.0             0.03               306.85    0.033525      -34.818568      -34.785044      -34.529799     -1.41
       2545       1272.5             0.03               303.73    0.033184      -34.818234      -34.785050      -34.529795     -1.39
       2546       1273.0             0.03               300.87    0.032871      -34.817920      -34.785048      -34.529791     -1.38
       2547       1273.5             0.03               298.77    0.032642      -34.817684      -34.785043      -34.529789     -1.37
       2548       1274.0             0.02               297.74    0.032530      -34.817565      -34.785036      -34.529789     -1.36
       2549       1274.5             0.03               297.84    0.032540      -34.817571      -34.785031      -34.529790     -1.37
       2550       1275.0             0.04               298.83    0.032649      -34.817680      -34.785031      -34.529793     -1.38
       2551       1275.5             0.04               300.31    0.032810      -34.817846      -34.785035      -34.529796     -1.40
       2552       1276.0             0.05               301.78    0.032971      -34.818014      -34.785043      -34.529799     -1.41
       2553       1276.5             0.06               302.84    0.033086      -34.818139      -34.785053      -34.529801     -1.42
       2554       1277.0             0.04               303.32    0.033139      -34.818200      -34.785061      -34.529800     -1.42
       2555       1277.5             0.04               303.38    0.033146      -34.818214      -34.785068      -34.529797     -1.40
       2556       1278.0             0.04               303.43    0.033152      -34.818225      -34.785074      -34.529793     -1.39
       2557       1278.5             0.03               303.96    0.033209      -34.818291      -34.785082      -34.529791     -1.37
       2558       1279.0             0.03               305.29    0.033354      -34.818451      -34.785097      -34.529791     -1.37
       2559       1279.5             0.03               307.41    0.033587      -34.818707      -34.785120      -34.529793     -1.39
       2560       1280.0             0.03               309.94    0.033862      -34.819015      -34.785153      -34.529798     -1.41
       2561       1280.5             0.03               312.22    0.034112      -34.819304      -34.785192      -34.529803     -1.43
       2562       1281.0             0.03               313.61    0.034264      -34.819497      -34.785233      -34.529806     -1.44
       2563       1281.5             0.03               313.68    0.034272      -34.819543      -34.785272      -34.529807     -1.45
       2564       1282.0             0.03               312.39    0.034130      -34.819435      -34.785304      -34.529804     -1.44
       2565       1282.5             0.03               310.06    0.033875      -34.819204      -34.785328      -34.529800     -1.42
       2566       1283.0             0.02               307.28    0.033572      -34.818916      -34.785344      -34.529795     -1.40
       2567       1283.5             0.03               304.72    0.033293      -34.818646      -34.785353      -34.529791     -1.38
       2568       1284.0             0.02               302.93    0.033097      -34.818456      -34.785359      -34.529789     -1.37
       2569       1284.5             0.02               302.17    0.033014      -34.818380      -34.785366      -34.529790     -1.37
       2570       1285.0             0.03               302.35    0.033033      -34.818409      -34.785375      -34.529793     -1.38
       2571       1285.5             0.02               303.07    0.033111      -34.818500      -34.785388      -34.529797     -1.40
       2572       1286.0             0.03               303.74    0.033185      -34.818588      -34.785403      -34.529801     -1.42
       2573       1286.5             0.03               303.85    0.033197      -34.818613      -34.785416      -34.529803     -1.43
       2574       1287.0             0.02               303.14    0.033120      -34.818543      -34.785423      -34.529802     -1.43
       2575       1287.5             0.02               301.78    0.032971      -34.818395      -34.785424      -34.529798     -1.41
       2576       1288.0             0.02               300.34    0.032814      -34.818233      -34.785420      -34.529792     -1.38
       2577       1288.5             0.03               299.62    0.032735      -34.818149      -34.785413      -34.529787     -1.36
       2578       1289.0             0.02               300.29    0.032808      -34.818220      -34.785412      -34.529785     -1.35
       2579       1289.5             0.03               302.59    0.033059      -34.818480      -34.785422      -34.529787     -1.36
       2580       1290.0             0.02               306.17    0.033450      -34.818895      -34.785445      -34.529793     -1.38
       2581       1290.5             0.02               310.22    0.033893      -34.819374      -34.785480      -34.529800     -1.42
       2582       1291.0             0.02               313.77    0.034281      -34.819806      -34.785525      -34.529806     -1.44
       2583       1291.5             0.02               316.02    0.034526      -34.820098      -34.785572      -34.529808     -1.45
       2584       1292.0             0.02               316.63    0.034593      -34.820211      -34.785617      -34.529807     -1.45
       2585       1292.5             0.02               315.80    0.034503      -34.820160      -34.785657      -34.529803     -1.43
       2586       1293.0             0.02               314.14    0.034321      -34.820013      -34.785692      -34.529797     -1.40
       2587       1293.5             0.03               312.41    0.034133      -34.819854      -34.785721      -34.529793     -1.38
       2588       1294.0             0.02               311.28    0.034009      -34.819759      -34.785751      -34.529790     -1.37
       2589       1294.5             0.02               311.08    0.033987      -34.819770      -34.785782      -34.529790     -1.37
       2590       1295.0             0.02               311.72    0.034057      -34.819875      -34.785818      -34.529794     -1.39
       2591       1295.5             0.02               312.67    0.034161      -34.820021      -34.785860      -34.529800     -1.41
       2592       1296.0             0.03               313.19    0.034218      -34.820120      -34.785902      -34.529805     -1.44
       2593       1296.5             0.02               312.54    0.034147      -34.820087      -34.785940      -34.529808     -1.45
       2594       1297.0             0.02               310.34    0.033907      -34.819875      -34.785969      -34.529808     -1.45
       2595       1297.5             0.02               306.77    0.033516      -34.819499      -34.785982      -34.529802     -1.43
       2596       1298.0             0.03               302.58    0.033059      -34.819040      -34.785982      -34.529794     -1.39
       2597       1298.5             0.02               298.89    0.032655      -34.818626      -34.785971      -34.529787     -1.36
       2598       1299.0             0.02               296.73    0.032419      -34.818376      -34.785957      -34.529782     -1.34
       2599       1299.5             0.03               296.64    0.032409      -34.818358      -34.785949      -34.529783     -1.34
       2600       1300.0             0.03               298.43    0.032605      -34.818555      -34.785950      -34.529789     -1.37
       2601       1300.5             0.02               301.31    0.032919      -34.818881      -34.785961      -34.529797     -1.40
       2602       1301.0             0.02               304.18    0.033233      -34.819213      -34.785980      -34.529803     -1.43
       2603       1301.5             0.02               306.16    0.033449      -34.819449      -34.786000      -34.529806     -1.44
       2604       1302.0             0.02               306.83    0.033522      -34.819540      -34.786018      -34.529805     -1.44
       2605       1302.5             0.02               306.37    0.033472      -34.819503      -34.786031      -34.529800     -1.42
       2606       1303.0             0.02               305.42    0.033369      -34.819409      -34.786040      -34.529794     -1.39
       2607       1303.5             0.03               304.81    0.033302      -34.819350      -34.786049      -34.529789     -1.37
       2608       1304.0             0.03               305.20    0.033345      -34.819405      -34.786061      -34.529787     -1.36
       2609       1304.5             0.03               306.89    0.033529      -34.819611      -34.786081      -34.529788     -1.36
       2610       1305.0             0.02               309.66    0.033832      -34.819946      -34.786113      -34.529793     -1.38
       2611       1305.5             0.02               312.82    0.034177      -34.820334      -34.786156      -34.529800     -1.42
       2612       1306.0             0.02               315.40    0.034459      -34.820665      -34.786206      -34.529807     -1.45
       2613       1306.5             0.02               316.49    0.034578      -34.820834      -34.786257      -34.529811     -1.47
       2614       1307.0             0.03               315.55    0.034476      -34.820776      -34.786300      -34.529811     -1.47
       2615       1307.5             0.02               312.70    0.034164      -34.820495      -34.786331      -34.529806     -1.44
       2616       1308.0             0.02               308.67    0.033723      -34.820070      -34.786347      -34.529798     -1.41
       2617       1308.5             0.03               304.55    0.033274      -34.819626      -34.786352      -34.529790     -1.37
       2618       1309.0             0.03               301.44    0.032934      -34.819285      -34.786351      -34.529785     -1.35
       2619       1309.5             0.02               299.92    0.032767      -34.819119      -34.786351      -34.529786     -1.35
       2620       1310.0             0.02               299.91    0.032767      -34.819122      -34.786356      -34.529791     -1.37
       2621       1310.5             0.02               300.74    0.032858      -34.819222      -34.786365      -34.529797     -1.40
       2622       1311.0             0.02               301.50    0.032941      -34.819315      -34.786374      -34.529803     -1.43
       2623       1311.5             0.02               301.45    0.032935      -34.819315      -34.786380      -34.529805     -1.44
       2624       1312.0             0.02               300.31    0.032810      -34.819189      -34.786379      -34.529802     -1.43
       2625       1312.5             0.03               298.38    0.032600      -34.818969      -34.786369      -34.529797     -1.40
       2626       1313.0             0.02               296.38    0.032381      -34.818734      -34.786353      -34.529791     -1.38
       2627       1313.5             0.02               295.15    0.032247      -34.818581      -34.786334      -34.529786     -1.35
       2628       1314.0             0.02               295.35    0.032268      -34.818587      -34.786319      -34.529784     -1.34
       2629       1314.5             0.02               297.23    0.032473      -34.818786      -34.786313      -34.529786     -1.35
       2630       1315.0             0.02               300.51    0.032832      -34.819151      -34.786319      -34.529791     -1.37
       2631       1315.5             0.02               304.47    0.033265      -34.819604      -34.786339      -34.529797     -1.40
       2632       1316.0             0.02               308.17    0.033669      -34.820037      -34.786368      -34.529804     -1.43
       2633       1316.5             0.02               310.71    0.033947      -34.820349      -34.786402      -34.529808     -1.45
       2634       1317.0             0.02               311.59    0.034042      -34.820477      -34.786435      -34.529808     -1.45
       2635       1317.5             0.02               310.79    0.033956      -34.820417      -34.786462      -34.529805     -1.44
       2636       1318.0             0.02               308.87    0.033746      -34.820226      -34.786481      -34.529799     -1.41
       2637       1318.5             0.02               306.66    0.033504      -34.819997      -34.786493      -34.529793     -1.38
       2638       1319.0             0.02               304.97    0.033319      -34.819823      -34.786504      -34.529790     -1.37
       2639       1319.5             0.02               304.23    0.033239      -34.819755      -34.786516      -34.529790     -1.37
       2640       1320.0             0.03               304.35    0.033252      -34.819784      -34.786533      -34.529794     -1.39
       2641       1320.5             0.03               304.77    0.033298      -34.819849      -34.786551      -34.529799     -1.41
       2642       1321.0             0.03               304.77    0.033297      -34.819866      -34.786569      -34.529804     -1.43
       2643       1321.5             0.02               303.78    0.033189      -34.819769      -34.786580      -34.529805     -1.44
       2644       1322.0             0.02               301.67    0.032959      -34.819542      -34.786583      -34.529802     -1.43
       2645       1322.5             0.02               298.81    0.032647      -34.819221      -34.786574      -34.529797     -1.40
       2646       1323.0             0.02               295.89    0.032327      -34.818884      -34.786557      -34.529791     -1.38
       2647       1323.5             0.02               293.67    0.032085      -34.818620      -34.786535      -34.529787     -1.36
       2648       1324.0             0.03               292.78    0.031987      -34.818500      -34.786512      -34.529785     -1.35
       2649       1324.5             0.02               293.44    0.032060      -34.818555      -34.786495      -34.529786     -1.35
       2650       1325.0             0.02               295.48    0.032283      -34.818769      -34.786486      -34.529789     -1.37
       2651       1325.5             0.02               298.39    0.032601      -34.819087      -34.786486      -34.529794     -1.39
       2652       1326.0             0.02               301.49    0.032940      -34.819435      -34.786495      -34.529799     -1.41
       2653       1326.5             0.03               304.14    0.033228      -34.819738      -34.786510      -34.529802     -1.43
       2654       1327.0             0.02               305.91    0.033422      -34.819950      -34.786527      -34.529803     -1.43
       2655       1327.5             0.02               306.76    0.033515      -34.820059      -34.786544      -34.529801     -1.42
       2656       1328.0             0.02               306.96    0.033536      -34.820096      -34.786560      -34.529797     -1.40
       2657       1328.5             0.02               307.02    0.033543      -34.820119      -34.786576      -34.529793     -1.39
       2658       1329.0             0.02               307.46    0.033591      -34.820186      -34.786595      -34.529791     -1.38
       2659       1329.5             0.03               308.53    0.033708      -34.820328      -34.786619      -34.529792     -1.38
       2660       1330.0             0.02               310.13    0.033883      -34.820534      -34.786651      -34.529795     -1.40
       2661       1330.5             0.02               311.77    0.034062      -34.820751      -34.786689      -34.529800     -1.42
       2662       1331.0             0.02               312.84    0.034179      -34.820908      -34.786729      -34.529804     -1.43
       2663       1331.5             0.02               312.81    0.034176      -34.820942      -34.786766      -34.529806     -1.44
       2664       1332.0             0.03               311.51    0.034034      -34.820831      -34.786797      -34.529804     -1.44
       2665       1332.5             0.02               309.11    0.033771      -34.820590      -34.786819      -34.529801     -1.42
       2666       1333.0             0.02               306.10    0.033443      -34.820275      -34.786832      -34.529796     -1.40
       2667       1333.5             0.02               303.09    0.033114      -34.819951      -34.786836      -34.529793     -1.38
       2668       1334.0             0.02               300.64    0.032846      -34.819682      -34.786836      -34.529790     -1.37
       2669       1334.5             0.02               299.08    0.032676      -34.819508      -34.786832      -34.529789     -1.37
       2670       1335.0             0.02               298.53    0.032616      -34.819445      -34.786829      -34.529790     -1.37
       2671       1335.5             0.03               298.84    0.032650      -34.819478      -34.786828      -34.529792     -1.38
       2672       1336.0             0.02               299.67    0.032741      -34.819571      -34.786830      -34.529795     -1.40
       2673       1336.5             0.02               300.59    0.032841      -34.819676      -34.786835      -34.529798     -1.41
       2674       1337.0             0.02               301.19    0.032907      -34.819747      -34.786840      -34.529800     -1.42
       2675       1337.5             0.02               301.29    0.032918      -34.819761      -34.786843      -34.529799     -1.41
       2676       1338.0             0.02               300.99    0.032884      -34.819727      -34.786843      -34.529797     -1.40
       2677       1338.5             0.02               300.67    0.032850      -34.819691      -34.786841      -34.529793     -1.38
       2678       1339.0             0.03               300.88    0.032873      -34.819713      -34.786840      -34.529790     -1.37
       2679       1339.5             0.02               302.03    0.032998      -34.819844      -34.786845      -34.529789     -1.37
       2680       1340.0             0.03               304.20    0.033235      -34.820094      -34.786859      -34.529791     -1.38
       2681       1340.5             0.03               307.04    0.033546      -34.820429      -34.786883      -34.529796     -1.40
       2682       1341.0             0.02               309.94    0.033862      -34.820779      -34.786916      -34.529801     -1.42
       2683       1341.5             0.02               312.20    0.034109      -34.821063      -34.786954      -34.529804     -1.44
       2684       1342.0             0.02               313.33    0.034233      -34.821225      -34.786993      -34.529805     -1.44
       2685       1342.5             0.03               313.16    0.034214      -34.821242      -34.787028      -34.529804     -1.44
       2686       1343.0             0.02               311.88    0.034075      -34.821133      -34.787058      -34.529801     -1.42
       2687       1343.5             0.03               309.95    0.033863      -34.820946      -34.787082      -34.529797     -1.40
       2688       1344.0             0.03               307.92    0.033642      -34.820743      -34.787101      -34.529793     -1.39
       2689       1344.5             0.02               306.33    0.033468      -34.820584      -34.787116      -34.529791     -1.37
       2690       1345.0             0.02               305.50    0.033378      -34.820508      -34.787131      -34.529790     -1.37
       2691       1345.5             0.03               305.49    0.033376      -34.820524      -34.787148      -34.529792     -1.38
       2692       1346.0             0.02               306.02    0.033434      -34.820603      -34.787169      -34.529796     -1.40
       2693       1346.5             0.03               306.57    0.033494      -34.820686      -34.787191      -34.529800     -1.42
       2694       1347.0             0.03               306.58    0.033495      -34.820708      -34.787213      -34.529803     -1.43
       2695       1347.5             0.02               305.66    0.033395      -34.820624      -34.787229      -34.529803     -1.43
       2696       1348.0             0.03               303.86    0.033198      -34.820434      -34.787236      -34.529800     -1.42
       2697       1348.5             0.03               301.65    0.032957      -34.820192      -34.787235      -34.529794     -1.39
       2698       1349.0             0.02               299.84    0.032759      -34.819988      -34.787229      -34.529789     -1.36
       2699       1349.5             0.02               299.16    0.032684      -34.819908      -34.787224      -34.529786     -1.35
       2700       1350.0             0.02               299.99    0.032775      -34.820000      -34.787225      -34.529787     -1.35
       2701       1350.5             0.03               302.17    0.033014      -34.820249      -34.787235      -34.529791     -1.37
       2702       1351.0             0.03               305.08    0.033332      -34.820587      -34.787255      -34.529797     -1.40
       2703       1351.5             0.02               307.88    0.033638      -34.820920      -34.787283      -34.529802     -1.43
       2704       1352.0             0.02               309.83    0.033851      -34.821164      -34.787313      -34.529805     -1.44
       2705       1352.5             0.02               310.56    0.033930      -34.821272      -34.787342      -34.529805     -1.44
       2706       1353.0             0.02               310.10    0.033880      -34.821248      -34.787367      -34.529802     -1.42
       2707       1353.5             0.02               308.89    0.033748      -34.821136      -34.787388      -34.529797     -1.40
       2708       1354.0             0.02               307.58    0.033605      -34.821009      -34.787404      -34.529792     -1.38
       2709       1354.5             0.02               306.79    0.033519      -34.820939      -34.787420      -34.529789     -1.37
       2710       1355.0             0.02               306.94    0.033535      -34.820974      -34.787439      -34.529789     -1.37
       2711       1355.5             0.02               308.04    0.033655      -34.821120      -34.787465      -34.529792     -1.38
       2712       1356.0             0.02               309.71    0.033837      -34.821334      -34.787497      -34.529797     -1.40
       2713       1356.5             0.02               311.24    0.034004      -34.821538      -34.787534      -34.529802     -1.43
       2714       1357.0             0.02               311.86    0.034073      -34.821644      -34.787571      -34.529807     -1.45
       2715       1357.5             0.03               311.07    0.033986      -34.821589      -34.787603      -34.529807     -1.45
       2716       1358.0             0.02               308.84    0.033742      -34.821366      -34.787624      -34.529804     -1.43
       2717       1358.5             0.02               305.69    0.033398      -34.821031      -34.787634      -34.529797     -1.40
       2718       1359.0             0.02               302.54    0.033054      -34.820688      -34.787634      -34.529790     -1.37
       2719       1359.5             0.02               300.34    0.032813      -34.820443      -34.787630      -34.529786     -1.35
       2720       1360.0             0.02               299.67    0.032740      -34.820369      -34.787629      -34.529785     -1.35
       2721       1360.5             0.02               300.54    0.032836      -34.820470      -34.787634      -34.529789     -1.37
       2722       1361.0             0.02               302.43    0.033042      -34.820689      -34.787647      -34.529795     -1.39
       2723       1361.5             0.02               304.50    0.033268      -34.820933      -34.787665      -34.529800     -1.42
       2724       1362.0             0.02               305.98    0.033430      -34.821115      -34.787685      -34.529803     -1.43
       2725       1362.5             0.02               306.44    0.033480      -34.821183      -34.787703      -34.529803     -1.43
       2726       1363.0             0.02               305.91    0.033422      -34.821138      -34.787716      -34.529800     -1.42
       2727       1363.5             0.02               304.82    0.033303      -34.821028      -34.787725      -34.529795     -1.39
       2728       1364.0             0.03               303.87    0.033199      -34.820930      -34.787731      -34.529790     -1.37
       2729       1364.5             0.02               303.71    0.033182      -34.820920      -34.787738      -34.529787     -1.36
       2730       1365.0             0.02               304.74    0.033294      -34.821045      -34.787751      -34.529787     -1.36
       2731       1365.5             0.03               306.93    0.033533      -34.821307      -34.787774      -34.529790     -1.37
       2732       1366.0             0.02               309.80    0.033847      -34.821654      -34.787807      -34.529796     -1.40
       2733       1366.5             0.02               312.58    0.034150      -34.821999      -34.787848      -34.529802     -1.43
       2734       1367.0             0.02               314.40    0.034350      -34.822244      -34.787893      -34.529807     -1.45
       2735       1367.5             0.03               314.69    0.034381      -34.822317      -34.787936      -34.529808     -1.45
       2736       1368.0             0.02               313.30    0.034229      -34.822200      -34.787970      -34.529805     -1.44
       2737       1368.5             0.02               310.68    0.033943      -34.821938      -34.787994      -34.529799     -1.41
       2738       1369.0             0.02               307.68    0.033616      -34.821625      -34.788009      -34.529793     -1.38
       2739       1369.5             0.02               305.24    0.033349      -34.821368      -34.788019      -34.529788     -1.36
       2740       1370.0             0.02               303.97    0.033211      -34.821240      -34.788029      -34.529787     -1.36
       2741       1370.5             0.02               303.97    0.033210      -34.821254      -34.788044      -34.529790     -1.37
       2742       1371.0             0.02               304.75    0.033295      -34.821358      -34.788063      -34.529796     -1.40
       2743       1371.5             0.02               305.52    0.033380      -34.821463      -34.788083      -34.529801     -1.42
       2744       1372.0             0.02               305.56    0.033384      -34.821486      -34.788102      -34.529804     -1.43
       2745       1372.5             0.02               304.50    0.033268      -34.821382      -34.788113      -34.529803     -1.43
       2746       1373.0             0.02               302.47    0.033047      -34.821163      -34.788116      -34.529799     -1.41
       2747       1373.5             0.02               300.03    0.032780      -34.820891      -34.788111      -34.529793     -1.39
       2748       1374.0             0.02               297.94    0.032551      -34.820651      -34.788100      -34.529788     -1.36
       2749       1374.5             0.02               296.88    0.032435      -34.820523      -34.788088      -34.529786     -1.35
       2750       1375.0             0.02               297.21    0.032471      -34.820552      -34.788081      -34.529786     -1.35
       2751       1375.5             0.02               298.87    0.032653      -34.820734      -34.788081      -34.529789     -1.37
       2752       1376.0             0.02               301.41    0.032931      -34.821021      -34.788090      -34.529794     -1.39
       2753       1376.5             0.02               304.10    0.033225      -34.821332      -34.788107      -34.529799     -1.41
       2754       1377.0             0.02               306.20    0.033454      -34.821582      -34.788128      -34.529803     -1.43
       2755       1377.5             0.02               307.19    0.033562      -34.821711      -34.788149      -34.529804     -1.44
       2756       1378.0             0.02               306.98    0.033539      -34.821705      -34.788166      -34.529802     -1.43
       2757       1378.5             0.02               305.94    0.033425      -34.821603      -34.788178      -34.529797     -1.40
       2758       1379.0             0.02               304.78    0.033299      -34.821485      -34.788186      -34.529791     -1.38
       2759       1379.5             0.02               304.25    0.033241      -34.821435      -34.788194      -34.529788     -1.36
       2760       1380.0             0.02               304.76    0.033297      -34.821505      -34.788208      -34.529789     -1.36
       2761       1380.5             0.02               306.23    0.033457      -34.821687      -34.788230      -34.529793     -1.38
       2762       1381.0             0.02               308.08    0.033660      -34.821918      -34.788258      -34.529798     -1.41
       2763       1381.5             0.02               309.55    0.033819      -34.822109      -34.788290      -34.529803     -1.43
       2764       1382.0             0.02               309.98    0.033867      -34.822186      -34.788319      -34.529805     -1.44
       2765       1382.5             0.02               309.15    0.033776      -34.822119      -34.788343      -34.529803     -1.43
       2766       1383.0             0.03               307.28    0.033572      -34.821932      -34.788360      -34.529799     -1.41
       2767       1383.5             0.02               304.95    0.033317      -34.821686      -34.788369      -34.529794     -1.39
       2768       1384.0             0.02               302.82    0.033084      -34.821457      -34.788373      -34.529790     -1.37
       2769       1384.5             0.02               301.44    0.032934      -34.821309      -34.788374      -34.529788     -1.36
       2770       1385.0             0.02               301.08    0.032895      -34.821273      -34.788378      -34.529789     -1.36
       2771       1385.5             0.02               301.69    0.032962      -34.821346      -34.788385      -34.529791     -1.37
       2772       1386.0             0.02               302.94    0.033098      -34.821495      -34.788396      -34.529794     -1.39
       2773       1386.5             0.02               304.36    0.033253      -34.821665      -34.788412      -34.529798     -1.41
       2774       1387.0             0.02               305.45    0.033372      -34.821802      -34.788430      -34.529800     -1.42
       2775       1387.5             0.02               305.90    0.033421      -34.821868      -34.788447      -34.529801     -1.42
       2776       1388.0             0.02               305.65    0.033394      -34.821855      -34.788461      -34.529799     -1.41
       2777       1388.5             0.02               304.97    0.033319      -34.821791      -34.788471      -34.529796     -1.40
       2778       1389.0             0.02               304.35    0.033252      -34.821732      -34.788480      -34.529792     -1.38
       2779       1389.5             0.02               304.30    0.033246      -34.821736      -34.788490      -34.529789     -1.37
       2780       1390.0             0.02               305.10    0.033334      -34.821838      -34.788504      -34.529790     -1.37
       2781       1390.5             0.02               306.68    0.033506      -34.822032      -34.788526      -34.529793     -1.38
       2782       1391.0             0.02               308.60    0.033716      -34.822270      -34.788554      -34.529797     -1.40
       2783       1391.5             0.02               310.28    0.033900      -34.822487      -34.788587      -34.529801     -1.42
       2784       1392.0             0.03               311.24    0.034005      -34.822625      -34.788620      -34.529802     -1.43
       2785       1392.5             0.02               311.26    0.034007      -34.822658      -34.788651      -34.529802     -1.42
       2786       1393.0             0.02               310.43    0.033916      -34.822594      -34.788678      -34.529799     -1.41
       2787       1393.5             0.03               309.07    0.033767      -34.822468      -34.788700      -34.529797     -1.40
       2788       1394.0             0.02               307.58    0.033605      -34.822324      -34.788719      -34.529794     -1.39
       2789       1394.5             0.02               306.32    0.033467      -34.822202      -34.788735      -34.529792     -1.38
       2790       1395.0             0.02               305.53    0.033381      -34.822131      -34.788750      -34.529792     -1.38
       2791       1395.5             0.02               305.28    0.033354      -34.822119      -34.788765      -34.529792     -1.38
       2792       1396.0             0.02               305.49    0.033376      -34.822158      -34.788782      -34.529794     -1.39
       2793       1396.5             0.02               305.91    0.033423      -34.822224      -34.788801      -34.529796     -1.40
       2794       1397.0             0.02               306.23    0.033457      -34.822278      -34.788821      -34.529798     -1.41
       2795       1397.5             0.02               306.11    0.033444      -34.822284      -34.788840      -34.529800     -1.42
       2796       1398.0             0.02               305.38    0.033364      -34.822219      -34.788855      -34.529800     -1.42
       2797       1398.5             0.03               304.09    0.033223      -34.822087      -34.788864      -34.529798     -1.41
       2798       1399.0             0.03               302.56    0.033056      -34.821923      -34.788868      -34.529794     -1.39
       2799       1399.5             0.03               301.27    0.032916      -34.821783      -34.788868      -34.529791     -1.37
       2800       1400.0             0.03               300.69    0.032851      -34.821719      -34.788868      -34.529789     -1.37
       2801       1400.5             0.02               301.00    0.032885      -34.821757      -34.788872      -34.529790     -1.37
       2802       1401.0             0.02               302.08    0.033004      -34.821884      -34.788880      -34.529793     -1.38
       2803       1401.5             0.02               303.55    0.033164      -34.822057      -34.788893      -34.529796     -1.40
       2804       1402.0             0.02               304.91    0.033313      -34.822223      -34.788910      -34.529799     -1.41
       2805       1402.5             0.02               305.78    0.033408      -34.822336      -34.788927      -34.529800     -1.42
       2806       1403.0             0.03               305.99    0.033431      -34.822374      -34.788944      -34.529800     -1.42
       2807       1403.5             0.02               305.58    0.033386      -34.822344      -34.788958      -34.529798     -1.41
       2808       1404.0             0.03               304.81    0.033302      -34.822270      -34.788969      -34.529796     -1.40
       2809       1404.5             0.02               304.02    0.033216      -34.822193      -34.788977      -34.529793     -1.38
       2810       1405.0             0.02               303.57    0.033166      -34.822152      -34.788986      -34.529791     -1.38
       2811       1405.5             0.02               303.66    0.033177      -34.822172      -34.788996      -34.529791     -1.38
       2812       1406.0             0.02               304.33    0.033250      -34.822259      -34.789009      -34.529792     -1.38
       2813       1406.5             0.03               305.37    0.033363      -34.822390      -34.789027      -34.529795     -1.40
       2814       1407.0             0.03               306.34    0.033469      -34.822517      -34.789049      -34.529799     -1.41
       2815       1407.5             0.03               306.75    0.033513      -34.822584      -34.789071      -34.529802     -1.43
       2816       1408.0             0.03               306.20    0.033454      -34.822543      -34.789089      -34.529803     -1.43
       2817       1408.5             0.03               304.59    0.033278      -34.822378      -34.789100      -34.529802     -1.42
       2818       1409.0             0.03               302.20    0.033017      -34.822119      -34.789102      -34.529798     -1.41
       2819       1409.5             0.03               299.60    0.032732      -34.821829      -34.789096      -34.529793     -1.38
       2820       1410.0             0.03               297.44    0.032497      -34.821583      -34.789086      -34.529789     -1.37
       2821       1410.5             0.03               296.19    0.032361      -34.821435      -34.789074      -34.529788     -1.36
       2822       1411.0             0.03               295.95    0.032333      -34.821398      -34.789065      -34.529790     -1.37
       2823       1411.5             0.03               296.42    0.032386      -34.821444      -34.789058      -34.529794     -1.39
       2824       1412.0             0.03               297.14    0.032464      -34.821518      -34.789053      -34.529797     -1.40
       2825       1412.5             0.03               297.64    0.032518      -34.821567      -34.789049      -34.529799     -1.41
       2826       1413.0             0.03               297.64    0.032518      -34.821561      -34.789042      -34.529799     -1.41
       2827       1413.5             0.03               297.15    0.032465      -34.821497      -34.789032      -34.529797     -1.40
       2828       1414.0             0.03               296.42    0.032385      -34.821404      -34.789019      -34.529794     -1.39
       2829       1414.5             0.03               295.86    0.032324      -34.821329      -34.789005      -34.529791     -1.38
       2830       1415.0             0.03               295.88    0.032326      -34.821317      -34.788991      -34.529789     -1.37
       2831       1415.5             0.03               296.75    0.032422      -34.821403      -34.788981      -34.529788     -1.36
       2832       1416.0             0.03               298.53    0.032616      -34.821595      -34.788979      -34.529790     -1.37
       2833       1416.5             0.02               300.99    0.032885      -34.821870      -34.788985      -34.529793     -1.38
       2834       1417.0             0.03               303.65    0.033175      -34.822175      -34.788999      -34.529797     -1.40
       2835       1417.5             0.02               305.92    0.033423      -34.822443      -34.789020      -34.529801     -1.42
       2836       1418.0             0.02               307.27    0.033571      -34.822614      -34.789042      -34.529804     -1.43
       2837       1418.5             0.03               307.46    0.033591      -34.822654      -34.789063      -34.529803     -1.43
       2838       1419.0             0.02               306.61    0.033498      -34.822576      -34.789078      -34.529799     -1.41
       2839       1419.5             0.03               305.23    0.033348      -34.822435      -34.789088      -34.529795     -1.39
       2840       1420.0             0.03               303.96    0.033209      -34.822304      -34.789095      -34.529791     -1.37
       2841       1420.5             0.02               303.33    0.033140      -34.822243      -34.789103      -34.529790     -1.37
       2842       1421.0             0.03               303.47    0.033155      -34.822270      -34.789114      -34.529791     -1.38
       2843       1421.5             0.02               304.15    0.033230      -34.822359      -34.789130      -34.529795     -1.39
       2844       1422.0             0.03               304.88    0.033309      -34.822456      -34.789147      -34.529799     -1.41
       2845       1422.5             0.02               305.14    0.033339      -34.822502      -34.789163      -34.529801     -1.42
       2846       1423.0             0.03               304.65    0.033285      -34.822461      -34.789176      -34.529801     -1.42
       2847       1423.5             0.02               303.41    0.033149      -34.822333      -34.789184      -34.529798     -1.41
       2848       1424.0             0.02               301.73    0.032966      -34.822151      -34.789185      -34.529795     -1.39
       2849       1424.5             0.03               300.11    0.032789      -34.821970      -34.789182      -34.529791     -1.38
       2850       1425.0             0.02               299.06    0.032674      -34.821850      -34.789176      -34.529788     -1.36
       2851       1425.5             0.03               298.97    0.032664      -34.821836      -34.789172      -34.529787     -1.36
       2852       1426.0             0.02               299.97    0.032774      -34.821946      -34.789173      -34.529788     -1.36
       2853       1426.5             0.03               301.90    0.032984      -34.822166      -34.789181      -34.529791     -1.38
       2854       1427.0             0.02               304.32    0.033248      -34.822446      -34.789198      -34.529795     -1.39
       2855       1427.5             0.02               306.62    0.033500      -34.822720      -34.789220      -34.529799     -1.41
       2856       1428.0             0.02               308.28    0.033681      -34.822927      -34.789246      -34.529802     -1.42
       2857       1428.5             0.02               309.00    0.033760      -34.823031      -34.789270      -34.529801     -1.42
       2858       1429.0             0.02               308.91    0.033750      -34.823042      -34.789292      -34.529798     -1.41
       2859       1429.5             0.03               308.47    0.033701      -34.823013      -34.789311      -34.529793     -1.39
       2860       1430.0             0.03               308.28    0.033681      -34.823012      -34.789331      -34.529790     -1.37
       2861       1430.5             0.03               308.80    0.033738      -34.823093      -34.789355      -34.529789     -1.37
       2862       1431.0             0.02               310.07    0.033876      -34.823262      -34.789386      -34.529792     -1.38
       2863       1431.5             0.02               311.71    0.034056      -34.823479      -34.789423      -34.529797     -1.40
       2864       1432.0             0.02               313.10    0.034208      -34.823672      -34.789465      -34.529801     -1.42
       2865       1432.5             0.02               313.64    0.034267      -34.823772      -34.789505      -34.529804     -1.43
       2866       1433.0             0.03               313.02    0.034199      -34.823740      -34.789541      -34.529803     -1.43
       2867       1433.5             0.02               311.31    0.034012      -34.823582      -34.789570      -34.529800     -1.42
       2868       1434.0             0.02               308.92    0.033751      -34.823341      -34.789591      -34.529796     -1.40
       2869       1434.5             0.02               306.43    0.033480      -34.823084      -34.789605      -34.529792     -1.38
       2870       1435.0             0.02               304.43    0.033260      -34.822874      -34.789614      -34.529789     -1.37
       2871       1435.5             0.02               303.26    0.033133      -34.822756      -34.789623      -34.529788     -1.36
       2872       1436.0             0.02               303.02    0.033107      -34.822739      -34.789633      -34.529790     -1.37
       2873       1436.5             0.02               303.51    0.033160      -34.822805      -34.789645      -34.529793     -1.38
       2874       1437.0             0.02               304.32    0.033248      -34.822909      -34.789661      -34.529796     -1.40
       2875       1437.5             0.02               305.00    0.033322      -34.823000      -34.789677      -34.529798     -1.41
       2876       1438.0             0.02               305.21    0.033345      -34.823038      -34.789693      -34.529799     -1.41
       2877       1438.5             0.02               304.88    0.033309      -34.823014      -34.789705      -34.529798     -1.41
       2878       1439.0             0.02               304.24    0.033240      -34.822953      -34.789713      -34.529794     -1.39
       2879       1439.5             0.03               303.77    0.033189      -34.822909      -34.789720      -34.529790     -1.37
       2880       1440.0             0.02               303.98    0.033211      -34.822940      -34.789729      -34.529788     -1.36
       2881       1440.5             0.02               305.12    0.033336      -34.823080      -34.789744      -34.529789     -1.37
       2882       1441.0             0.02               307.09    0.033551      -34.823318      -34.789767      -34.529792     -1.38
       2883       1441.5             0.02               309.38    0.033801      -34.823600      -34.789798      -34.529797     -1.40
       2884       1442.0             0.02               311.34    0.034016      -34.823850      -34.789834      -34.529801     -1.42
       2885       1442.5             0.02               312.43    0.034135      -34.824006      -34.789871      -34.529803     -1.43
       2886       1443.0             0.03               312.42    0.034134      -34.824038      -34.789904      -34.529802     -1.43
       2887       1443.5             0.02               311.45    0.034028      -34.823961      -34.789934      -34.529799     -1.41
       2888       1444.0             0.03               309.92    0.033860      -34.823818      -34.789958      -34.529796     -1.40
       2889       1444.5             0.02               308.29    0.033682      -34.823661      -34.789979      -34.529793     -1.38
       2890       1445.0             0.02               306.93    0.033534      -34.823531      -34.789997      -34.529792     -1.38
       2891       1445.5             0.02               306.00    0.033432      -34.823446      -34.790014      -34.529793     -1.38
       2892       1446.0             0.02               305.39    0.033365      -34.823397      -34.790031      -34.529794     -1.39
       2893       1446.5             0.02               304.88    0.033310      -34.823357      -34.790047      -34.529796     -1.40
       2894       1447.0             0.02               304.18    0.033234      -34.823294      -34.790060      -34.529798     -1.41
       2895       1447.5             0.02               303.09    0.033114      -34.823184      -34.790070      -34.529799     -1.41
       2896       1448.0             0.02               301.53    0.032943      -34.823016      -34.790073      -34.529798     -1.41
       2897       1448.5             0.02               299.60    0.032733      -34.822803      -34.790070      -34.529796     -1.40
       2898       1449.0             0.02               297.60    0.032515      -34.822575      -34.790061      -34.529793     -1.39
       2899       1449.5             0.03               295.93    0.032332      -34.822379      -34.790046      -34.529790     -1.37
       2900       1450.0             0.02               294.99    0.032229      -34.822259      -34.790030      -34.529788     -1.36
       2901       1450.5             0.02               295.00    0.032230      -34.822246      -34.790016      -34.529789     -1.36
       2902       1451.0             0.02               295.92    0.032330      -34.822337      -34.790007      -34.529791     -1.37
       2903       1451.5             0.02               297.44    0.032497      -34.822500      -34.790003      -34.529794     -1.39
       2904       1452.0             0.02               299.14    0.032683      -34.822686      -34.790003      -34.529796     -1.40
       2905       1452.5             0.02               300.64    0.032846      -34.822853      -34.790006      -34.529798     -1.40
       2906       1453.0             0.02               301.76    0.032968      -34.822979      -34.790011      -34.529797     -1.40
       2907       1453.5             0.02               302.54    0.033054      -34.823070      -34.790016      -34.529796     -1.40
       2908       1454.0             0.02               303.18    0.033124      -34.823148      -34.790024      -34.529794     -1.39
       2909       1454.5             0.02               303.88    0.033201      -34.823235      -34.790034      -34.529793     -1.39
       2910       1455.0             0.02               304.77    0.033297      -34.823345      -34.790047      -34.529793     -1.39
       2911       1455.5             0.02               305.80    0.033410      -34.823474      -34.790065      -34.529794     -1.39
       2912       1456.0             0.02               306.83    0.033523      -34.823608      -34.790085      -34.529796     -1.40
       2913       1456.5             0.02               307.68    0.033615      -34.823723      -34.790108      -34.529797     -1.40
       2914       1457.0             0.02               308.14    0.033666      -34.823798      -34.790132      -34.529798     -1.41
       2915       1457.5             0.02               308.07    0.033658      -34.823814      -34.790155      -34.529799     -1.41
       2916       1458.0             0.02               307.38    0.033583      -34.823759      -34.790176      -34.529800     -1.41
       2917       1458.5             0.02               306.07    0.033439      -34.823632      -34.790193      -34.529799     -1.41
       2918       1459.0             0.02               304.23    0.033239      -34.823442      -34.790203      -34.529797     -1.40
       2919       1459.5             0.02               302.12    0.033009      -34.823215      -34.790207      -34.529795     -1.39
       2920       1460.0             0.02               300.08    0.032785      -34.822990      -34.790204      -34.529793     -1.38
       2921       1460.5             0.02               298.43    0.032604      -34.822803      -34.790198      -34.529791     -1.38
       2922       1461.0             0.02               297.36    0.032488      -34.822679      -34.790191      -34.529791     -1.37
       2923       1461.5             0.02               296.88    0.032436      -34.822619      -34.790183      -34.529792     -1.38
       2924       1462.0             0.02               296.85    0.032432      -34.822608      -34.790176      -34.529793     -1.38
       2925       1462.5             0.02               297.06    0.032455      -34.822624      -34.790168      -34.529794     -1.39
       2926       1463.0             0.02               297.38    0.032491      -34.822652      -34.790161      -34.529794     -1.39
       2927       1463.5             0.02               297.79    0.032535      -34.822689      -34.790154      -34.529793     -1.39
       2928       1464.0             0.02               298.34    0.032595      -34.822744      -34.790149      -34.529793     -1.38
       2929       1464.5             0.02               299.10    0.032679      -34.822825      -34.790146      -34.529792     -1.38
       2930       1465.0             0.02               300.14    0.032792      -34.822939      -34.790146      -34.529792     -1.38
       2931       1465.5             0.02               301.45    0.032935      -34.823086      -34.790151      -34.529793     -1.38
       2932       1466.0             0.02               302.96    0.033100      -34.823260      -34.790160      -34.529794     -1.39
       2933       1466.5             0.02               304.57    0.033275      -34.823449      -34.790174      -34.529795     -1.39
       2934       1467.0             0.02               306.13    0.033446      -34.823639      -34.790192      -34.529796     -1.40
       2935       1467.5             0.02               307.48    0.033593      -34.823808      -34.790215      -34.529797     -1.40
       2936       1468.0             0.02               308.40    0.033695      -34.823934      -34.790240      -34.529799     -1.41
       2937       1468.5             0.02               308.72    0.033729      -34.823994      -34.790265      -34.529800     -1.42
       2938       1469.0             0.02               308.31    0.033684      -34.823972      -34.790288      -34.529800     -1.42
       2939       1469.5             0.02               307.20    0.033563      -34.823871      -34.790307      -34.529798     -1.41
       2940       1470.0             0.02               305.62    0.033390      -34.823711      -34.790321      -34.529796     -1.40
       2941       1470.5             0.02               303.86    0.033199      -34.823528      -34.790329      -34.529794     -1.39
       2942       1471.0             0.02               302.24    0.033022      -34.823356      -34.790334      -34.529793     -1.38
       2943       1471.5             0.02               300.92    0.032877      -34.823214      -34.790337      -34.529793     -1.38
       2944       1472.0             0.02               299.89    0.032764      -34.823102      -34.790337      -34.529793     -1.39
       2945       1472.5             0.02               299.04    0.032672      -34.823007      -34.790335      -34.529794     -1.39
       2946       1473.0             0.02               298.25    0.032585      -34.822916      -34.790331      -34.529795     -1.39
       2947       1473.5             0.02               297.47    0.032500      -34.822823      -34.790323      -34.529794     -1.39
       2948       1474.0             0.02               296.74    0.032420      -34.822734      -34.790313      -34.529793     -1.39
       2949       1474.5             0.02               296.20    0.032361      -34.822663      -34.790301      -34.529792     -1.38
       2950       1475.0             0.02               296.01    0.032341      -34.822630      -34.790289      -34.529791     -1.37
       2951       1475.5             0.02               296.33    0.032375      -34.822653      -34.790278      -34.529790     -1.37
       2952       1476.0             0.02               297.25    0.032476      -34.822746      -34.790270      -34.529790     -1.37
       2953       1476.5             0.02               298.78    0.032644      -34.822911      -34.790267      -34.529790     -1.37
       2954       1477.0             0.02               300.85    0.032870      -34.823140      -34.790271      -34.529792     -1.38
       2955       1477.5             0.02               303.26    0.033133      -34.823415      -34.790282      -34.529794     -1.39
       2956       1478.0             0.02               305.72    0.033402      -34.823702      -34.790300      -34.529796     -1.40
       2957       1478.5             0.02               307.90    0.033640      -34.823965      -34.790325      -34.529798     -1.41
       2958       1479.0             0.02               309.53    0.033818      -34.824170      -34.790352      -34.529799     -1.41
       2959       1479.5             0.03               310.48    0.033922      -34.824303      -34.790381      -34.529799     -1.41
       2960       1480.0             0.02               310.84    0.033961      -34.824371      -34.790410      -34.529797     -1.40
       2961       1480.5             0.02               310.86    0.033963      -34.824401      -34.790439      -34.529795     -1.39
       2962       1481.0             0.02               310.77    0.033953      -34.824421      -34.790468      -34.529794     -1.39
       2963       1481.5             0.02               310.68    0.033944      -34.824442      -34.790499      -34.529795     -1.39
       2964       1482.0             0.02               310.51    0.033925      -34.824454      -34.790530      -34.529797     -1.40
       2965       1482.5             0.02               310.04    0.033873      -34.824432      -34.790559      -34.529798     -1.41
       2966       1483.0             0.03               309.06    0.033767      -34.824352      -34.790585      -34.529799     -1.41
       2967       1483.5             0.02               307.52    0.033598      -34.824203      -34.790606      -34.529798     -1.41
       2968       1484.0             0.02               305.51    0.033379      -34.823998      -34.790619      -34.529796     -1.40
       2969       1484.5             0.02               303.31    0.033138      -34.823764      -34.790626      -34.529794     -1.39
       2970       1485.0             0.02               301.26    0.032914      -34.823542      -34.790627      -34.529791     -1.38
       2971       1485.5             0.02               299.68    0.032741      -34.823366      -34.790625      -34.529790     -1.37
       2972       1486.0             0.02               298.78    0.032643      -34.823264      -34.790621      -34.529789     -1.37
       2973       1486.5             0.02               298.63    0.032627      -34.823244      -34.790617      -34.529790     -1.37
       2974       1487.0             0.02               299.18    0.032687      -34.823303      -34.790616      -34.529791     -1.37
       2975       1487.5             0.02               300.24    0.032803      -34.823421      -34.790618      -34.529792     -1.38
       2976       1488.0             0.02               301.58    0.032950      -34.823574      -34.790624      -34.529794     -1.39
       2977       1488.5             0.02               302.99    0.033103      -34.823737      -34.790634      -34.529795     -1.39
       2978       1489.0             0.03               304.30    0.033247      -34.823893      -34.790646      -34.529795     -1.40
       2979       1489.5             0.03               305.50    0.033378      -34.824038      -34.790661      -34.529795     -1.39
       2980       1490.0             0.02               306.69    0.033508      -34.824186      -34.790678      -34.529793     -1.39
       2981       1490.5             0.02               308.05    0.033656      -34.824356      -34.790700      -34.529792     -1.38
       2982       1491.0             0.02               309.68    0.033834      -34.824561      -34.790728      -34.529793     -1.38
       2983       1491.5             0.02               311.49    0.034031      -34.824793      -34.790762      -34.529795     -1.39
       2984       1492.0             0.02               313.19    0.034217      -34.825019      -34.790802      -34.529798     -1.41
       2985       1492.5             0.02               314.40    0.034349      -34.825194      -34.790844      -34.529800     -1.42
       2986       1493.0             0.03               314.78    0.034392      -34.825278      -34.790887      -34.529801     -1.42
       2987       1493.5             0.02               314.23    0.034331      -34.825257      -34.790926      -34.529800     -1.42
       2988       1494.0             0.03               312.88    0.034183      -34.825143      -34.790959      -34.529798     -1.41
       2989       1494.5             0.02               311.05    0.033984      -34.824971      -34.790988      -34.529795     -1.39
       2990       1495.0             0.02               309.13    0.033774      -34.824785      -34.791011      -34.529793     -1.38
       2991       1495.5             0.02               307.45    0.033590      -34.824621      -34.791031      -34.529792     -1.38
       2992       1496.0             0.02               306.12    0.033445      -34.824493      -34.791048      -34.529792     -1.38
       2993       1496.5             0.03               305.09    0.033332      -34.824396      -34.791064      -34.529794     -1.39
       2994       1497.0             0.02               304.19    0.033234      -34.824311      -34.791077      -34.529795     -1.39
       2995       1497.5             0.02               303.24    0.033131      -34.824218      -34.791087      -34.529796     -1.40
       2996       1498.0             0.02               302.15    0.033012      -34.824105      -34.791093      -34.529796     -1.40
       2997       1498.5             0.02               300.96    0.032882      -34.823976      -34.791094      -34.529795     -1.39
       2998       1499.0             0.02               299.83    0.032758      -34.823850      -34.791092      -34.529793     -1.38
       2999       1499.5             0.02               298.99    0.032666      -34.823754      -34.791087      -34.529791     -1.38
       3000       1500.0             0.02               298.72    0.032636      -34.823719      -34.791082      -34.529789     -1.37
       3001       1500.5             0.02               299.20    0.032689      -34.823769      -34.791079      -34.529789     -1.37
       3002       1501.0             0.03               300.48    0.032829      -34.823911      -34.791082      -34.529790     -1.37
       3003       1501.5             0.02               302.37    0.033035      -34.824126      -34.791091      -34.529793     -1.38
       3004       1502.0             0.03               304.47    0.033265      -34.824372      -34.791107      -34.529796     -1.40
       3005       1502.5             0.02               306.32    0.033467      -34.824595      -34.791127      -34.529798     -1.41
       3006       1503.0             0.02               307.58    0.033605      -34.824754      -34.791149      -34.529799     -1.41
       3007       1503.5             0.02               308.14    0.033666      -34.824837      -34.791171      -34.529798     -1.41
       3008       1504.0             0.02               308.16    0.033668      -34.824859      -34.791192      -34.529796     -1.40
       3009       1504.5             0.02               307.95    0.033645      -34.824856      -34.791212      -34.529794     -1.39
       3010       1505.0             0.02               307.81    0.033630      -34.824862      -34.791232      -34.529793     -1.38
       3011       1505.5             0.02               307.89    0.033638      -34.824893      -34.791255      -34.529793     -1.39
       3012       1506.0             0.02               308.10    0.033661      -34.824941      -34.791280      -34.529795     -1.39
       3013       1506.5             0.03               308.17    0.033669      -34.824975      -34.791305      -34.529798     -1.41
       3014       1507.0             0.03               307.78    0.033627      -34.824955      -34.791329      -34.529800     -1.41
       3015       1507.5             0.02               306.70    0.033509      -34.824856      -34.791348      -34.529800     -1.42
       3016       1508.0             0.03               304.93    0.033315      -34.824675      -34.791360      -34.529798     -1.41
       3017       1508.5             0.02               302.69    0.033070      -34.824435      -34.791365      -34.529796     -1.40
       3018       1509.0             0.03               300.34    0.032814      -34.824177      -34.791363      -34.529793     -1.38
       3019       1509.5             0.02               298.31    0.032592      -34.823948      -34.791356      -34.529790     -1.37
       3020       1510.0             0.03               296.91    0.032439      -34.823785      -34.791346      -34.529789     -1.37
       3021       1510.5             0.02               296.32    0.032374      -34.823710      -34.791336      -34.529789     -1.37
       3022       1511.0             0.02               296.51    0.032395      -34.823722      -34.791327      -34.529790     -1.37
       3023       1511.5             0.03               297.27    0.032479      -34.823800      -34.791322      -34.529792     -1.38
       3024       1512.0             0.03               298.32    0.032593      -34.823912      -34.791319      -34.529794     -1.39
       3025       1512.5             0.02               299.35    0.032706      -34.824024      -34.791318      -34.529795     -1.40
       3026       1513.0             0.02               300.23    0.032801      -34.824120      -34.791318      -34.529795     -1.39
       3027       1513.5             0.02               301.01    0.032887      -34.824206      -34.791319      -34.529793     -1.39
       3028       1514.0             0.02               301.90    0.032984      -34.824307      -34.791323      -34.529791     -1.38
       3029       1514.5             0.02               303.15    0.033121      -34.824452      -34.791331      -34.529790     -1.37
       3030       1515.0             0.02               304.89    0.033311      -34.824656      -34.791345      -34.529791     -1.37
       3031       1515.5             0.02               307.03    0.033544      -34.824911      -34.791367      -34.529793     -1.38
       3032       1516.0             0.02               309.26    0.033788      -34.825184      -34.791396      -34.529796     -1.40
       3033       1516.5             0.02               311.16    0.033996      -34.825426      -34.791430      -34.529799     -1.41
       3034       1517.0             0.03               312.35    0.034126      -34.825592      -34.791466      -34.529801     -1.42
       3035       1517.5             0.02               312.63    0.034157      -34.825658      -34.791501      -34.529800     -1.42
       3036       1518.0             0.02               312.06    0.034094      -34.825627      -34.791533      -34.529799     -1.41
       3037       1518.5             0.02               310.88    0.033966      -34.825527      -34.791561      -34.529796     -1.40
       3038       1519.0             0.02               309.46    0.033810      -34.825396      -34.791586      -34.529794     -1.39
       3039       1519.5             0.02               308.06    0.033657      -34.825265      -34.791608      -34.529793     -1.39
       3040       1520.0             0.02               306.81    0.033521      -34.825147      -34.791627      -34.529794     -1.39
       3041       1520.5             0.02               305.71    0.033400      -34.825043      -34.791644      -34.529794     -1.39
       3042       1521.0             0.02               304.66    0.033286      -34.824943      -34.791657      -34.529795     -1.39
       3043       1521.5             0.02               303.58    0.033168      -34.824835      -34.791668      -34.529795     -1.39
       3044       1522.0             0.02               302.42    0.033040      -34.824715      -34.791674      -34.529795     -1.39
       3045       1522.5             0.02               301.19    0.032906      -34.824583      -34.791677      -34.529794     -1.39
       3046       1523.0             0.02               300.02    0.032779      -34.824454      -34.791675      -34.529792     -1.38
       3047       1523.5             0.02               299.11    0.032679      -34.824350      -34.791671      -34.529791     -1.37
       3048       1524.0             0.02               298.68    0.032632      -34.824298      -34.791666      -34.529789     -1.37
       3049       1524.5             0.02               298.92    0.032658      -34.824320      -34.791662      -34.529789     -1.36
       3050       1525.0             0.02               299.87    0.032762      -34.824424      -34.791662      -34.529789     -1.37
       3051       1525.5             0.02               301.42    0.032931      -34.824599      -34.791668      -34.529791     -1.38
       3052       1526.0             0.02               303.32    0.033139      -34.824819      -34.791680      -34.529793     -1.39
       3053       1526.5             0.02               305.27    0.033352      -34.825049      -34.791696      -34.529795     -1.39
       3054       1527.0             0.02               307.00    0.033541      -34.825258      -34.791717      -34.529796     -1.40
       3055       1527.5             0.02               308.36    0.033690      -34.825430      -34.791740      -34.529796     -1.40
       3056       1528.0             0.02               309.36    0.033799      -34.825565      -34.791766      -34.529796     -1.40
       3057       1528.5             0.02               310.11    0.033882      -34.825675      -34.791793      -34.529795     -1.39
       3058       1529.0             0.02               310.72    0.033948      -34.825771      -34.791823      -34.529795     -1.39
       3059       1529.5             0.02               311.21    0.034001      -34.825857      -34.791855      -34.529795     -1.39
       3060       1530.0             0.02               311.50    0.034033      -34.825922      -34.791889      -34.529796     -1.40
       3061       1530.5             0.02               311.48    0.034031      -34.825952      -34.791921      -34.529797     -1.40
       3062       1531.0             0.02               311.05    0.033984      -34.825937      -34.791953      -34.529797     -1.40
       3063       1531.5             0.02               310.18    0.033888      -34.825869      -34.791981      -34.529797     -1.40
       3064       1532.0             0.02               308.88    0.033746      -34.825752      -34.792006      -34.529797     -1.40
       3065       1532.5             0.02               307.21    0.033565      -34.825590      -34.792025      -34.529796     -1.40
       3066       1533.0             0.02               305.30    0.033355      -34.825394      -34.792039      -34.529795     -1.39
       3067       1533.5             0.02               303.29    0.033136      -34.825182      -34.792046      -34.529793     -1.39
       3068       1534.0             0.02               301.40    0.032929      -34.824978      -34.792049      -34.529792     -1.38
       3069       1534.5             0.02               299.85    0.032760      -34.824807      -34.792047      -34.529790     -1.37
       3070       1535.0             0.02               298.80    0.032646      -34.824689      -34.792043      -34.529790     -1.37
       3071       1535.5             0.02               298.34    0.032595      -34.824633      -34.792039      -34.529790     -1.37
       3072       1536.0             0.02               298.39    0.032601      -34.824636      -34.792035      -34.529791     -1.38
       3073       1536.5             0.02               298.82    0.032648      -34.824681      -34.792033      -34.529792     -1.38
       3074       1537.0             0.02               299.43    0.032714      -34.824747      -34.792033      -34.529794     -1.39
       3075       1537.5             0.03               300.07    0.032784      -34.824817      -34.792033      -34.529794     -1.39
       3076       1538.0             0.02               300.67    0.032849      -34.824884      -34.792035      -34.529794     -1.39
       3077       1538.5             0.02               301.27    0.032915      -34.824953      -34.792038      -34.529793     -1.39
       3078       1539.0             0.02               301.96    0.032991      -34.825034      -34.792043      -34.529793     -1.38
       3079       1539.5             0.02               302.80    0.033082      -34.825133      -34.792051      -34.529793     -1.38
       3080       1540.0             0.02               303.74    0.033185      -34.825248      -34.792062      -34.529794     -1.39
       3081       1540.5             0.02               304.69    0.033289      -34.825366      -34.792077      -34.529795     -1.39
       3082       1541.0             0.02               305.49    0.033376      -34.825469      -34.792093      -34.529796     -1.40
       3083       1541.5             0.02               305.98    0.033430      -34.825541      -34.792111      -34.529797     -1.40
       3084       1542.0             0.02               306.04    0.033437      -34.825565      -34.792128      -34.529798     -1.41
       3085       1542.5             0.02               305.59    0.033387      -34.825531      -34.792144      -34.529798     -1.41
       3086       1543.0             0.02               304.60    0.033279      -34.825435      -34.792157      -34.529797     -1.40
       3087       1543.5             0.02               303.16    0.033121      -34.825285      -34.792164      -34.529796     -1.40
       3088       1544.0             0.02               301.45    0.032935      -34.825101      -34.792166      -34.529794     -1.39
       3089       1544.5             0.02               299.72    0.032746      -34.824910      -34.792164      -34.529792     -1.38
       3090       1545.0             0.03               298.23    0.032583      -34.824740      -34.792157      -34.529791     -1.38
       3091       1545.5             0.02               297.13    0.032463      -34.824612      -34.792149      -34.529791     -1.37
       3092       1546.0             0.02               296.49    0.032393      -34.824533      -34.792140      -34.529791     -1.38
       3093       1546.5             0.02               296.21    0.032362      -34.824492      -34.792131      -34.529793     -1.38
       3094       1547.0             0.02               296.09    0.032349      -34.824470      -34.792121      -34.529794     -1.39
       3095       1547.5             0.02               295.94    0.032333      -34.824443      -34.792111      -34.529795     -1.39
       3096       1548.0             0.02               295.67    0.032303      -34.824401      -34.792098      -34.529795     -1.39
       3097       1548.5             0.02               295.33    0.032266      -34.824350      -34.792084      -34.529793     -1.39
       3098       1549.0             0.02               295.13    0.032245      -34.824313      -34.792068      -34.529792     -1.38
       3099       1549.5             0.02               295.29    0.032262      -34.824316      -34.792054      -34.529790     -1.37
       3100       1550.0             0.02               295.94    0.032333      -34.824376      -34.792043      -34.529790     -1.37
       3101       1550.5             0.02               297.08    0.032458      -34.824493      -34.792035      -34.529791     -1.38
       3102       1551.0             0.02               298.59    0.032622      -34.824655      -34.792033      -34.529793     -1.38
       3103       1551.5             0.02               300.26    0.032804      -34.824839      -34.792035      -34.529794     -1.39
       3104       1552.0             0.02               301.85    0.032979      -34.825021      -34.792042      -34.529796     -1.40
       3105       1552.5             0.02               303.15    0.033120      -34.825172      -34.792052      -34.529797     -1.40
       3106       1553.0             0.02               303.96    0.033209      -34.825272      -34.792064      -34.529798     -1.41
       3107       1553.5             0.02               304.19    0.033234      -34.825309      -34.792075      -34.529797     -1.40
       3108       1554.0             0.02               303.92    0.033204      -34.825289      -34.792084      -34.529796     -1.40
       3109       1554.5             0.02               303.33    0.033141      -34.825232      -34.792092      -34.529794     -1.39
       3110       1555.0             0.02               302.73    0.033075      -34.825172      -34.792097      -34.529792     -1.38
       3111       1555.5             0.02               302.36    0.033034      -34.825137      -34.792103      -34.529791     -1.38
       3112       1556.0             0.02               302.33    0.033031      -34.825142      -34.792110      -34.529792     -1.38
       3113       1556.5             0.03               302.56    0.033057      -34.825176      -34.792120      -34.529794     -1.39
       3114       1557.0             0.02               302.78    0.033080      -34.825210      -34.792130      -34.529796     -1.40
       3115       1557.5             0.02               302.62    0.033063      -34.825202      -34.792139      -34.529798     -1.41
       3116       1558.0             0.02               301.85    0.032979      -34.825124      -34.792145      -34.529799     -1.41
       3117       1558.5             0.03               300.48    0.032829      -34.824973      -34.792144      -34.529797     -1.40
       3118       1559.0             0.02               298.77    0.032642      -34.824780      -34.792138      -34.529793     -1.39
       3119       1559.5             0.03               297.18    0.032469      -34.824595      -34.792126      -34.529790     -1.37
       3120       1560.0             0.02               296.14    0.032355      -34.824468      -34.792114      -34.529788     -1.36
       3121       1560.5             0.02               295.91    0.032329      -34.824431      -34.792102      -34.529788     -1.36
       3122       1561.0             0.02               296.50    0.032394      -34.824487      -34.792093      -34.529789     -1.37
       3123       1561.5             0.02               297.72    0.032527      -34.824616      -34.792089      -34.529792     -1.38
       3124       1562.0             0.02               299.21    0.032691      -34.824780      -34.792090      -34.529794     -1.39
       3125       1562.5             0.02               300.60    0.032842      -34.824936      -34.792094      -34.529797     -1.40
       3126       1563.0             0.02               301.58    0.032949      -34.825048      -34.792099      -34.529797     -1.40
       3127       1563.5             0.02               302.01    0.032996      -34.825100      -34.792104      -34.529797     -1.40
       3128       1564.0             0.02               302.04    0.032999      -34.825106      -34.792107      -34.529794     -1.39
       3129       1564.5             0.02               301.99    0.032993      -34.825103      -34.792109      -34.529791     -1.38
       3130       1565.0             0.02               302.27    0.033025      -34.825138      -34.792113      -34.529789     -1.36
       3131       1565.5             0.02               303.20    0.033126      -34.825248      -34.792122      -34.529788     -1.36
       3132       1566.0             0.02               304.83    0.033304      -34.825441      -34.792137      -34.529790     -1.37
       3133       1566.5             0.02               306.87    0.033527      -34.825687      -34.792160      -34.529794     -1.39
       3134       1567.0             0.03               308.79    0.033736      -34.825926      -34.792189      -34.529798     -1.41
       3135       1567.5             0.03               310.00    0.033869      -34.826090      -34.792221      -34.529801     -1.42
       3136       1568.0             0.02               310.13    0.033883      -34.826132      -34.792249      -34.529802     -1.42
       3137       1568.5             0.02               309.15    0.033776      -34.826048      -34.792272      -34.529799     -1.41
       3138       1569.0             0.02               307.48    0.033593      -34.825882      -34.792288      -34.529794     -1.39
       3139       1569.5             0.02               305.74    0.033404      -34.825704      -34.792300      -34.529790     -1.37
       3140       1570.0             0.02               304.55    0.033274      -34.825584      -34.792311      -34.529788     -1.36
       3141       1570.5             0.02               304.20    0.033235      -34.825558      -34.792323      -34.529788     -1.36
       3142       1571.0             0.02               304.61    0.033280      -34.825618      -34.792338      -34.529791     -1.37
       3143       1571.5             0.02               305.40    0.033366      -34.825723      -34.792357      -34.529794     -1.39
       3144       1572.0             0.02               306.08    0.033441      -34.825818      -34.792377      -34.529797     -1.40
       3145       1572.5             0.02               306.26    0.033460      -34.825856      -34.792396      -34.529798     -1.41
       3146       1573.0             0.02               305.76    0.033406      -34.825817      -34.792411      -34.529797     -1.40
       3147       1573.5             0.02               304.72    0.033292      -34.825714      -34.792421      -34.529795     -1.39
       3148       1574.0             0.02               303.51    0.033160      -34.825587      -34.792428      -34.529791     -1.37
       3149       1574.5             0.02               302.63    0.033064      -34.825495      -34.792431      -34.529788     -1.36
       3150       1575.0             0.02               302.54    0.033054      -34.825490      -34.792437      -34.529786     -1.35
       3151       1575.5             0.02               303.44    0.033152      -34.825599      -34.792447      -34.529786     -1.35
       3152       1576.0             0.02               305.22    0.033347      -34.825812      -34.792465      -34.529789     -1.37
       3153       1576.5             0.02               307.46    0.033592      -34.826082      -34.792490      -34.529794     -1.39
       3154       1577.0             0.02               309.55    0.033819      -34.826340      -34.792521      -34.529798     -1.41
       3155       1577.5             0.02               310.92    0.033969      -34.826523      -34.792554      -34.529800     -1.42
       3156       1578.0             0.02               311.29    0.034010      -34.826595      -34.792585      -34.529800     -1.42
       3157       1578.5             0.02               310.74    0.033950      -34.826562      -34.792612      -34.529797     -1.40
       3158       1579.0             0.02               309.73    0.033839      -34.826474      -34.792635      -34.529793     -1.38
       3159       1579.5             0.02               308.84    0.033742      -34.826398      -34.792656      -34.529789     -1.37
       3160       1580.0             0.02               308.53    0.033709      -34.826388      -34.792679      -34.529788     -1.36
       3161       1580.5             0.02               308.95    0.033754      -34.826460      -34.792706      -34.529790     -1.37
       3162       1581.0             0.02               309.83    0.033850      -34.826587      -34.792737      -34.529793     -1.39
       3163       1581.5             0.02               310.69    0.033944      -34.826715      -34.792771      -34.529797     -1.40
       3164       1582.0             0.02               311.03    0.033982      -34.826786      -34.792804      -34.529799     -1.41
       3165       1582.5             0.02               310.55    0.033929      -34.826763      -34.792834      -34.529799     -1.41
       3166       1583.0             0.02               309.21    0.033783      -34.826641      -34.792858      -34.529798     -1.41
       3167       1583.5             0.02               307.29    0.033573      -34.826448      -34.792875      -34.529794     -1.39
       3168       1584.0             0.02               305.24    0.033349      -34.826235      -34.792886      -34.529791     -1.37
       3169       1584.5             0.02               303.56    0.033165      -34.826058      -34.792893      -34.529788     -1.36
       3170       1585.0             0.02               302.63    0.033064      -34.825962      -34.792899      -34.529786     -1.35
       3171       1585.5             0.02               302.62    0.033062      -34.825969      -34.792907      -34.529787     -1.36
       3172       1586.0             0.02               303.41    0.033149      -34.826067      -34.792919      -34.529789     -1.37
       3173       1586.5             0.02               304.66    0.033285      -34.826220      -34.792935      -34.529793     -1.38
       3174       1587.0             0.02               305.91    0.033422      -34.826377      -34.792955      -34.529796     -1.40
       3175       1587.5             0.02               306.74    0.033513      -34.826489      -34.792976      -34.529798     -1.41
       3176       1588.0             0.02               306.92    0.033533      -34.826528      -34.792995      -34.529798     -1.41
       3177       1588.5             0.02               306.49    0.033486      -34.826497      -34.793011      -34.529795     -1.40
       3178       1589.0             0.02               305.79    0.033409      -34.826433      -34.793024      -34.529792     -1.38
       3179       1589.5             0.02               305.29    0.033355      -34.826390      -34.793035      -34.529789     -1.37
       3180       1590.0             0.02               305.40    0.033367      -34.826416      -34.793049      -34.529788     -1.36
       3181       1590.5             0.02               306.25    0.033459      -34.826528      -34.793068      -34.529789     -1.37
       3182       1591.0             0.02               307.61    0.033607      -34.826701      -34.793093      -34.529793     -1.38
       3183       1591.5             0.02               308.99    0.033759      -34.826881      -34.793122      -34.529797     -1.40
       3184       1592.0             0.02               309.91    0.033859      -34.827011      -34.793152      -34.529799     -1.41
       3185       1592.5             0.02               310.00    0.033869      -34.827050      -34.793181      -34.529800     -1.41
       3186       1593.0             0.02               309.20    0.033781      -34.826987      -34.793205      -34.529798     -1.41
       3187       1593.5             0.02               307.69    0.033617      -34.826841      -34.793224      -34.529796     -1.40
       3188       1594.0             0.02               305.84    0.033415      -34.826652      -34.793238      -34.529793     -1.38
       3189       1594.5             0.02               304.04    0.033218      -34.826465      -34.793247      -34.529790     -1.37
       3190       1595.0             0.02               302.64    0.033065      -34.826317      -34.793253      -34.529789     -1.37
       3191       1595.5             0.02               301.81    0.032975      -34.826232      -34.793258      -34.529789     -1.37
       3192       1596.0             0.02               301.57    0.032948      -34.826211      -34.793263      -34.529790     -1.37
       3193       1596.5             0.02               301.72    0.032965      -34.826235      -34.793270      -34.529792     -1.38
       3194       1597.0             0.02               301.94    0.032989      -34.826267      -34.793279      -34.529795     -1.39
       3195       1597.5             0.02               301.87    0.032980      -34.826266      -34.793286      -34.529797     -1.40
       3196       1598.0             0.02               301.22    0.032910      -34.826200      -34.793290      -34.529798     -1.41
       3197       1598.5             0.02               299.98    0.032774      -34.826062      -34.793288      -34.529796     -1.40
       3198       1599.0             0.02               298.39    0.032601      -34.825881      -34.793280      -34.529793     -1.38
       3199       1599.5             0.02               296.96    0.032444      -34.825712      -34.793268      -34.529789     -1.37
       3200       1600.0             0.02               296.17    0.032358      -34.825613      -34.793255      -34.529787     -1.36
       3201       1600.5             0.02               296.30    0.032372      -34.825617      -34.793245      -34.529787     -1.36
       3202       1601.0             0.02               297.28    0.032480      -34.825720      -34.793240      -34.529790     -1.37
       3203       1601.5             0.02               298.76    0.032641      -34.825880      -34.793240      -34.529793     -1.38
       3204       1602.0             0.02               300.25    0.032803      -34.826047      -34.793243      -34.529796     -1.40
       3205       1602.5             0.02               301.37    0.032927      -34.826175      -34.793248      -34.529797     -1.40
       3206       1603.0             0.02               301.95    0.032990      -34.826244      -34.793254      -34.529797     -1.40
       3207       1603.5             0.02               301.99    0.032994      -34.826252      -34.793258      -34.529796     -1.40
       3208       1604.0             0.02               301.65    0.032957      -34.826218      -34.793261      -34.529794     -1.39
       3209       1604.5             0.02               301.19    0.032907      -34.826169      -34.793262      -34.529792     -1.38
       3210       1605.0             0.02               300.88    0.032872      -34.826136      -34.793263      -34.529790     -1.37
       3211       1605.5             0.02               300.93    0.032878      -34.826143      -34.793265      -34.529790     -1.37
       3212       1606.0             0.02               301.43    0.032933      -34.826202      -34.793269      -34.529790     -1.37
       3213       1606.5             0.03               302.32    0.033030      -34.826307      -34.793278      -34.529792     -1.38
       3214       1607.0             0.02               303.32    0.033139      -34.826429      -34.793290      -34.529795     -1.39
       3215       1607.5             0.02               304.05    0.033219      -34.826523      -34.793304      -34.529798     -1.41
       3216       1608.0             0.02               304.13    0.033228      -34.826546      -34.793318      -34.529799     -1.41
       3217       1608.5             0.02               303.37    0.033144      -34.826471      -34.793327      -34.529799     -1.41
       3218       1609.0             0.02               301.84    0.032978      -34.826307      -34.793329      -34.529796     -1.40
       3219       1609.5             0.02               299.96    0.032772      -34.826097      -34.793325      -34.529793     -1.38
       3220       1610.0             0.02               298.25    0.032585      -34.825902      -34.793317      -34.529789     -1.37
       3221       1610.5             0.02               297.19    0.032470      -34.825777      -34.793307      -34.529787     -1.36
       3222       1611.0             0.02               296.99    0.032447      -34.825747      -34.793300      -34.529788     -1.36
       3223       1611.5             0.02               297.51    0.032505      -34.825800      -34.793295      -34.529791     -1.37
       3224       1612.0             0.03               298.44    0.032606      -34.825900      -34.793293      -34.529793     -1.39
       3225       1612.5             0.03               299.39    0.032710      -34.826003      -34.793294      -34.529795     -1.39
       3226       1613.0             0.02               300.05    0.032782      -34.826076      -34.793295      -34.529796     -1.40
       3227       1613.5             0.02               300.27    0.032806      -34.826102      -34.793295      -34.529796     -1.40
       3228       1614.0             0.02               300.10    0.032788      -34.826082      -34.793294      -34.529794     -1.39
       3229       1614.5             0.02               299.75    0.032749      -34.826040      -34.793291      -34.529792     -1.38
       3230       1615.0             0.03               299.53    0.032725      -34.826012      -34.793287      -34.529789     -1.37
       3231       1615.5             0.03               299.80    0.032755      -34.826039      -34.793284      -34.529787     -1.36
       3232       1616.0             0.03               300.79    0.032863      -34.826150      -34.793286      -34.529787     -1.36
       3233       1616.5             0.04               302.54    0.033054      -34.826349      -34.793295      -34.529789     -1.36
       3234       1617.0             0.03               304.78    0.033299      -34.826611      -34.793312      -34.529792     -1.38
       3235       1617.5             0.02               307.03    0.033545      -34.826881      -34.793336      -34.529797     -1.40
       3236       1618.0             0.02               308.71    0.033728      -34.827093      -34.793364      -34.529800     -1.42
       3237       1618.5             0.03               309.36    0.033799      -34.827191      -34.793392      -34.529802     -1.42
       3238       1619.0             0.03               308.84    0.033742      -34.827157      -34.793415      -34.529800     -1.42
       3239       1619.5             0.03               307.44    0.033590      -34.827021      -34.793431      -34.529795     -1.40
       3240       1620.0             0.03               305.77    0.033407      -34.826849      -34.793443      -34.529791     -1.37
       3241       1620.5             0.02               304.47    0.033265      -34.826717      -34.793452      -34.529788     -1.36
       3242       1621.0             0.02               303.95    0.033208      -34.826671      -34.793463      -34.529788     -1.36
       3243       1621.5             0.02               304.20    0.033236      -34.826713      -34.793477      -34.529790     -1.37
       3244       1622.0             0.03               304.88    0.033310      -34.826805      -34.793495      -34.529794     -1.39
       3245       1622.5             0.03               305.47    0.033374      -34.826887      -34.793513      -34.529797     -1.40
       3246       1623.0             0.02               305.51    0.033378      -34.826908      -34.793530      -34.529798     -1.41
       3247       1623.5             0.02               304.79    0.033300      -34.826843      -34.793543      -34.529798     -1.41
       3248       1624.0             0.02               303.41    0.033149      -34.826699      -34.793550      -34.529795     -1.39
       3249       1624.5             0.03               301.74    0.032966      -34.826517      -34.793551      -34.529791     -1.38
       3250       1625.0             0.04               300.31    0.032810      -34.826357      -34.793548      -34.529787     -1.36
       3251       1625.5             0.02               299.66    0.032739      -34.826283      -34.793544      -34.529784     -1.35
       3252       1626.0             0.02               300.16    0.032794      -34.826337      -34.793544      -34.529784     -1.34
       3253       1626.5             0.02               301.83    0.032977      -34.826528      -34.793551      -34.529786     -1.35
       3254       1627.0             0.03               304.37    0.033254      -34.826822      -34.793568      -34.529790     -1.37
       3255       1627.5             0.03               307.15    0.033557      -34.827150      -34.793593      -34.529796     -1.40
       3256       1628.0             0.02               309.44    0.033808      -34.827431      -34.793624      -34.529800     -1.42
       3257       1628.5             0.02               310.69    0.033944      -34.827600      -34.793655      -34.529802     -1.42
       3258       1629.0             0.02               310.73    0.033948      -34.827632      -34.793683      -34.529800     -1.41
       3259       1629.5             0.02               309.87    0.033854      -34.827560      -34.793706      -34.529795     -1.39
       3260       1630.0             0.02               308.78    0.033736      -34.827461      -34.793725      -34.529790     -1.37
       3261       1630.5             0.03               308.17    0.033669      -34.827414      -34.793745      -34.529786     -1.35
       3262       1631.0             0.03               308.42    0.033697      -34.827467      -34.793770      -34.529787     -1.36
       3263       1631.5             0.03               309.42    0.033806      -34.827606      -34.793800      -34.529791     -1.38
       3264       1632.0             0.02               310.58    0.033933      -34.827768      -34.793835      -34.529797     -1.40
       3265       1632.5             0.02               311.18    0.033998      -34.827869      -34.793871      -34.529801     -1.42
       3266       1633.0             0.02               310.63    0.033938      -34.827840      -34.793902      -34.529802     -1.43
       3267       1633.5             0.02               308.75    0.033732      -34.827657      -34.793925      -34.529801     -1.42
       3268       1634.0             0.02               305.78    0.033408      -34.827345      -34.793937      -34.529797     -1.40
       3269       1634.5             0.02               302.31    0.033029      -34.826967      -34.793938      -34.529791     -1.38
       3270       1635.0             0.02               299.09    0.032677      -34.826607      -34.793930      -34.529786     -1.35
       3271       1635.5             0.02               296.77    0.032423      -34.826341      -34.793918      -34.529783     -1.34
       3272       1636.0             0.02               295.74    0.032311      -34.826217      -34.793906      -34.529783     -1.34
       3273       1636.5             0.02               296.03    0.032343      -34.826240      -34.793897      -34.529785     -1.35
       3274       1637.0             0.02               297.26    0.032477      -34.826371      -34.793894      -34.529790     -1.37
       3275       1637.5             0.02               298.81    0.032647      -34.826542      -34.793896      -34.529795     -1.39
       3276       1638.0             0.02               300.01    0.032778      -34.826677      -34.793899      -34.529798     -1.41
       3277       1638.5             0.02               300.40    0.032820      -34.826721      -34.793901      -34.529799     -1.41
       3278       1639.0             0.03               299.92    0.032768      -34.826666      -34.793898      -34.529796     -1.40
       3279       1639.5             0.02               299.00    0.032668      -34.826558      -34.793890      -34.529791     -1.38
       3280       1640.0             0.02               298.37    0.032598      -34.826479      -34.793880      -34.529786     -1.35
       3281       1640.5             0.02               298.72    0.032637      -34.826511      -34.793874      -34.529783     -1.34
       3282       1641.0             0.02               300.36    0.032816      -34.826693      -34.793877      -34.529785     -1.35
       3283       1641.5             0.02               303.02    0.033106      -34.826997      -34.793891      -34.529790     -1.37
       3284       1642.0             0.02               305.93    0.033424      -34.827338      -34.793914      -34.529797     -1.40
       3285       1642.5             0.02               308.18    0.033670      -34.827612      -34.793942      -34.529802     -1.43
       3286       1643.0             0.02               309.10    0.033771      -34.827740      -34.793969      -34.529804     -1.43
       3287       1643.5             0.02               308.48    0.033703      -34.827694      -34.793991      -34.529802     -1.42
       3288       1644.0             0.02               306.60    0.033497      -34.827502      -34.794005      -34.529797     -1.40
       3289       1644.5             0.02               304.04    0.033218      -34.827230      -34.794011      -34.529792     -1.38
       3290       1645.0             0.02               301.52    0.032942      -34.826954      -34.794012      -34.529788     -1.36
       3291       1645.5             0.02               299.59    0.032732      -34.826740      -34.794008      -34.529786     -1.35
       3292       1646.0             0.02               298.57    0.032620      -34.826624      -34.794004      -34.529786     -1.35
       3293       1646.5             0.02               298.40    0.032602      -34.826604      -34.794002      -34.529788     -1.36
       3294       1647.0             0.02               298.76    0.032641      -34.826643      -34.794002      -34.529792     -1.38
       3295       1647.5             0.02               299.13    0.032681      -34.826685      -34.794004      -34.529796     -1.40
       3296       1648.0             0.02               299.01    0.032668      -34.826671      -34.794003      -34.529798     -1.41
       3297       1648.5             0.02               298.09    0.032568      -34.826566      -34.793998      -34.529798     -1.41
       3298       1649.0             0.02               296.44    0.032388      -34.826373      -34.793985      -34.529795     -1.40
       3299       1649.5             0.02               294.50    0.032175      -34.826140      -34.793964      -34.529790     -1.37
       3300       1650.0             0.02               292.98    0.032010      -34.825949      -34.793939      -34.529785     -1.35
       3301       1650.5             0.02               292.60    0.031967      -34.825883      -34.793916      -34.529782     -1.33
       3302       1651.0             0.02               293.69    0.032087      -34.825987      -34.793899      -34.529783     -1.34
       3303       1651.5             0.02               296.10    0.032351      -34.826243      -34.793893      -34.529788     -1.36
       3304       1652.0             0.02               299.18    0.032687      -34.826583      -34.793896      -34.529793     -1.39
       3305       1652.5             0.02               302.12    0.033008      -34.826915      -34.793907      -34.529798     -1.41
       3306       1653.0             0.02               304.27    0.033244      -34.827164      -34.793921      -34.529800     -1.42
       3307       1653.5             0.03               305.36    0.033362      -34.827297      -34.793935      -34.529799     -1.41
       3308       1654.0             0.02               305.47    0.033374      -34.827322      -34.793948      -34.529796     -1.40
       3309       1654.5             0.02               305.00    0.033323      -34.827281      -34.793958      -34.529793     -1.38
       3310       1655.0             0.02               304.41    0.033258      -34.827226      -34.793968      -34.529790     -1.37
       3311       1655.5             0.02               304.08    0.033222      -34.827200      -34.793978      -34.529789     -1.36
       3312       1656.0             0.02               304.22    0.033238      -34.827228      -34.793990      -34.529789     -1.37
       3313       1656.5             0.02               304.81    0.033303      -34.827307      -34.794005      -34.529791     -1.37
       3314       1657.0             0.02               305.61    0.033390      -34.827413      -34.794023      -34.529793     -1.39
       3315       1657.5             0.02               306.24    0.033458      -34.827502      -34.794044      -34.529796     -1.40
       3316       1658.0             0.02               306.28    0.033462      -34.827526      -34.794064      -34.529799     -1.41
       3317       1658.5             0.02               305.42    0.033369      -34.827449      -34.794080      -34.529800     -1.41
       3318       1659.0             0.02               303.61    0.033171      -34.827260      -34.794089      -34.529798     -1.41
       3319       1659.5             0.02               301.12    0.032899      -34.826986      -34.794088      -34.529794     -1.39
       3320       1660.0             0.02               298.50    0.032613      -34.826691      -34.794079      -34.529789     -1.37
       3321       1660.5             0.02               296.45    0.032389      -34.826453      -34.794064      -34.529785     -1.35
       3322       1661.0             0.02               295.53    0.032288      -34.826338      -34.794050      -34.529784     -1.34
       3323       1661.5             0.02               295.90    0.032328      -34.826369      -34.794041      -34.529785     -1.35
       3324       1662.0             0.02               297.29    0.032481      -34.826518      -34.794037      -34.529789     -1.37
       3325       1662.5             0.02               299.16    0.032685      -34.826724      -34.794039      -34.529793     -1.39
       3326       1663.0             0.02               300.93    0.032878      -34.826922      -34.794044      -34.529796     -1.40
       3327       1663.5             0.02               302.22    0.033019      -34.827069      -34.794051      -34.529796     -1.40
       3328       1664.0             0.02               302.94    0.033097      -34.827155      -34.794058      -34.529795     -1.39
       3329       1664.5             0.02               303.25    0.033132      -34.827196      -34.794064      -34.529793     -1.38
       3330       1665.0             0.02               303.47    0.033156      -34.827227      -34.794072      -34.529791     -1.37
       3331       1665.5             0.02               303.90    0.033203      -34.827284      -34.794081      -34.529789     -1.37
       3332       1666.0             0.02               304.76    0.033297      -34.827391      -34.794094      -34.529788     -1.36
       3333       1666.5             0.02               306.11    0.033444      -34.827556      -34.794112      -34.529789     -1.37
       3334       1667.0             0.02               307.79    0.033628      -34.827764      -34.794136      -34.529792     -1.38
       3335       1667.5             0.02               309.50    0.033815      -34.827981      -34.794166      -34.529795     -1.39
       3336       1668.0             0.02               310.81    0.033957      -34.828157      -34.794200      -34.529798     -1.41
       3337       1668.5             0.02               311.25    0.034006      -34.828240      -34.794234      -34.529801     -1.42
       3338       1669.0             0.02               310.51    0.033925      -34.828189      -34.794264      -34.529802     -1.42
       3339       1669.5             0.03               308.55    0.033710      -34.827996      -34.794286      -34.529800     -1.41
       3340       1670.0             0.02               305.69    0.033398      -34.827695      -34.794297      -34.529795     -1.39
       3341       1670.5             0.02               302.57    0.033057      -34.827356      -34.794299      -34.529790     -1.37
       3342       1671.0             0.02               299.88    0.032764      -34.827059      -34.794295      -34.529786     -1.35
       3343       1671.5             0.02               298.10    0.032569      -34.826859      -34.794290      -34.529786     -1.35
       3344       1672.0             0.02               297.27    0.032479      -34.826763      -34.794284      -34.529788     -1.36
       3345       1672.5             0.02               297.08    0.032457      -34.826737      -34.794280      -34.529792     -1.38
       3346       1673.0             0.02               297.02    0.032451      -34.826725      -34.794274      -34.529794     -1.39
       3347       1673.5             0.02               296.73    0.032419      -34.826685      -34.794266      -34.529795     -1.39
       3348       1674.0             0.03               296.06    0.032346      -34.826599      -34.794254      -34.529794     -1.39
       3349       1674.5             0.03               295.13    0.032244      -34.826482      -34.794238      -34.529792     -1.38
       3350       1675.0             0.03               294.25    0.032148      -34.826367      -34.794219      -34.529789     -1.37
       3351       1675.5             0.03               293.79    0.032097      -34.826296      -34.794199      -34.529787     -1.36
       3352       1676.0             0.03               294.07    0.032129      -34.826310      -34.794181      -34.529785     -1.35
       3353       1676.5             0.02               295.32    0.032265      -34.826432      -34.794167      -34.529785     -1.35
       3354       1677.0             0.02               297.51    0.032505      -34.826667      -34.794162      -34.529786     -1.35
       3355       1677.5             0.02               300.40    0.032820      -34.826987      -34.794167      -34.529790     -1.37
       3356       1678.0             0.02               303.49    0.033157      -34.827338      -34.794181      -34.529794     -1.39
       3357       1678.5             0.03               306.14    0.033447      -34.827650      -34.794203      -34.529799     -1.41
       3358       1679.0             0.02               307.77    0.033625      -34.827852      -34.794227      -34.529802     -1.42
       3359       1679.5             0.03               308.08    0.033660      -34.827909      -34.794249      -34.529801     -1.42
       3360       1680.0             0.03               307.20    0.033563      -34.827829      -34.794266      -34.529797     -1.40
       3361       1680.5             0.03               305.65    0.033394      -34.827671      -34.794276      -34.529792     -1.38
       3362       1681.0             0.03               304.14    0.033229      -34.827513      -34.794284      -34.529788     -1.36
       3363       1681.5             0.02               303.20    0.033127      -34.827419      -34.794292      -34.529787     -1.36
       3364       1682.0             0.03               302.95    0.033099      -34.827401      -34.794303      -34.529790     -1.37
       3365       1682.5             0.02               303.06    0.033111      -34.827426      -34.794315      -34.529794     -1.39
       3366       1683.0             0.03               302.99    0.033103      -34.827430      -34.794327      -34.529797     -1.40
       3367       1683.5             0.02               302.23    0.033020      -34.827355      -34.794335      -34.529799     -1.41
       3368       1684.0             0.03               300.57    0.032839      -34.827175      -34.794336      -34.529798     -1.41
       3369       1684.5             0.02               298.12    0.032571      -34.826899      -34.794327      -34.529795     -1.39
       3370       1685.0             0.02               295.32    0.032265      -34.826575      -34.794310      -34.529790     -1.37
       3371       1685.5             0.03               292.76    0.031986      -34.826271      -34.794285      -34.529786     -1.35
       3372       1686.0             0.02               291.08    0.031802      -34.826058      -34.794256      -34.529782     -1.34
       3373       1686.5             0.03               290.73    0.031764      -34.825993      -34.794229      -34.529781     -1.33
       3374       1687.0             0.02               291.87    0.031888      -34.826096      -34.794208      -34.529782     -1.34
       3375       1687.5             0.03               294.26    0.032149      -34.826345      -34.794196      -34.529786     -1.35
       3376       1688.0             0.02               297.32    0.032484      -34.826678      -34.794194      -34.529792     -1.38
       3377       1688.5             0.02               300.29    0.032808      -34.827008      -34.794200      -34.529797     -1.40
       3378       1689.0             0.02               302.46    0.033045      -34.827255      -34.794210      -34.529800     -1.42
       3379       1689.5             0.02               303.48    0.033156      -34.827375      -34.794219      -34.529799     -1.41
       3380       1690.0             0.02               303.47    0.033156      -34.827380      -34.794224      -34.529795     -1.39
       3381       1690.5             0.02               303.04    0.033108      -34.827335      -34.794227      -34.529790     -1.37
       3382       1691.0             0.02               302.93    0.033097      -34.827328      -34.794231      -34.529785     -1.35
       3383       1691.5             0.02               303.72    0.033183      -34.827424      -34.794241      -34.529785     -1.35
       3384       1692.0             0.02               305.44    0.033371      -34.827631      -34.794260      -34.529789     -1.36
       3385       1692.5             0.02               307.56    0.033603      -34.827890      -34.794287      -34.529795     -1.39
       3386       1693.0             0.02               309.25    0.033787      -34.828106      -34.794319      -34.529801     -1.42
       3387       1693.5             0.02               309.71    0.033838      -34.828187      -34.794349      -34.529803     -1.43
       3388       1694.0             0.02               308.58    0.033714      -34.828086      -34.794372      -34.529803     -1.43
       3389       1694.5             0.02               306.00    0.033432      -34.827817      -34.794385      -34.529798     -1.41
       3390       1695.0             0.02               302.57    0.033058      -34.827444      -34.794386      -34.529792     -1.38
       3391       1695.5             0.02               299.14    0.032683      -34.827060      -34.794378      -34.529786     -1.35
       3392       1696.0             0.02               296.52    0.032397      -34.826760      -34.794364      -34.529782     -1.33
       3393       1696.5             0.02               295.25    0.032258      -34.826607      -34.794349      -34.529781     -1.33
       3394       1697.0             0.02               295.44    0.032279      -34.826618      -34.794339      -34.529783     -1.34
       3395       1697.5             0.02               296.77    0.032424      -34.826758      -34.794334      -34.529788     -1.36
       3396       1698.0             0.02               298.59    0.032623      -34.826958      -34.794336      -34.529793     -1.38
       3397       1698.5             0.02               300.18    0.032796      -34.827136      -34.794340      -34.529797     -1.40
       3398       1699.0             0.02               300.98    0.032884      -34.827228      -34.794344      -34.529799     -1.41
       3399       1699.5             0.02               300.87    0.032871      -34.827216      -34.794345      -34.529796     -1.40
       3400       1700.0             0.02               300.18    0.032796      -34.827136      -34.794340      -34.529791     -1.38
       3401       1700.5             0.02               299.63    0.032736      -34.827069      -34.794333      -34.529785     -1.35
       3402       1701.0             0.02               300.03    0.032780      -34.827109      -34.794329      -34.529781     -1.33
       3403       1701.5             0.02               301.88    0.032982      -34.827316      -34.794335      -34.529782     -1.33
       3404       1702.0             0.02               305.07    0.033330      -34.827684      -34.794354      -34.529787     -1.36
       3405       1702.5             0.02               308.89    0.033748      -34.828135      -34.794386      -34.529794     -1.39
       3406       1703.0             0.02               312.34    0.034125      -34.828552      -34.794427      -34.529801     -1.42
       3407       1703.5             0.02               314.50    0.034361      -34.828832      -34.794471      -34.529804     -1.44
       3408       1704.0             0.02               314.95    0.034410      -34.828922      -34.794512      -34.529803     -1.43
       3409       1704.5             0.02               313.82    0.034286      -34.828833      -34.794547      -34.529799     -1.41
       3410       1705.0             0.02               311.71    0.034056      -34.828630      -34.794574      -34.529793     -1.39
       3411       1705.5             0.02               309.41    0.033804      -34.828400      -34.794595      -34.529788     -1.36
       3412       1706.0             0.02               307.58    0.033605      -34.828219      -34.794614      -34.529786     -1.35
       3413       1706.5             0.02               306.60    0.033497      -34.828130      -34.794633      -34.529786     -1.35
       3414       1707.0             0.02               306.43    0.033479      -34.828132      -34.794653      -34.529788     -1.36
       3415       1707.5             0.02               306.74    0.033513      -34.828188      -34.794676      -34.529792     -1.38
       3416       1708.0             0.02               307.00    0.033541      -34.828240      -34.794699      -34.529795     -1.40
       3417       1708.5             0.02               306.73    0.033512      -34.828232      -34.794720      -34.529798     -1.41
       3418       1709.0             0.02               305.63    0.033392      -34.828128      -34.794736      -34.529798     -1.41
       3419       1709.5             0.02               303.75    0.033186      -34.827930      -34.794744      -34.529795     -1.40
       3420       1710.0             0.02               301.45    0.032935      -34.827678      -34.794743      -34.529791     -1.37
       3421       1710.5             0.02               299.40    0.032711      -34.827448      -34.794736      -34.529785     -1.35
       3422       1711.0             0.02               298.34    0.032595      -34.827323      -34.794728      -34.529782     -1.33
       3423       1711.5             0.02               298.75    0.032640      -34.827364      -34.794724      -34.529781     -1.33
       3424       1712.0             0.02               300.68    0.032851      -34.827580      -34.794729      -34.529784     -1.34
       3425       1712.5             0.02               303.64    0.033174      -34.827919      -34.794745      -34.529790     -1.37
       3426       1713.0             0.02               306.80    0.033520      -34.828289      -34.794770      -34.529796     -1.40
       3427       1713.5             0.02               309.38    0.033802      -34.828601      -34.794799      -34.529799     -1.41
       3428       1714.0             0.02               310.93    0.033971      -34.828801      -34.794830      -34.529799     -1.41
       3429       1714.5             0.02               311.45    0.034028      -34.828887      -34.794859      -34.529796     -1.40
       3430       1715.0             0.02               311.29    0.034010      -34.828898      -34.794887      -34.529793     -1.38
       3431       1715.5             0.03               310.95    0.033973      -34.828888      -34.794915      -34.529790     -1.37
       3432       1716.0             0.03               310.84    0.033961      -34.828905      -34.794944      -34.529788     -1.36
       3433       1716.5             0.03               311.16    0.033996      -34.828971      -34.794976      -34.529789     -1.36
       3434       1717.0             0.02               311.85    0.034072      -34.829082      -34.795010      -34.529790     -1.37
       3435       1717.5             0.05               312.69    0.034163      -34.829211      -34.795048      -34.529793     -1.38
       3436       1718.0             0.03               313.32    0.034232      -34.829320      -34.795088      -34.529795     -1.40
       3437       1718.5             0.02               313.40    0.034241      -34.829369      -34.795128      -34.529798     -1.41
       3438       1719.0             0.03               312.67    0.034160      -34.829325      -34.795164      -34.529799     -1.41
       3439       1719.5             0.02               311.01    0.033979      -34.829174      -34.795195      -34.529798     -1.41
       3440       1720.0             0.03               308.57    0.033713      -34.828929      -34.795216      -34.529795     -1.39
       3441       1720.5             0.03               305.77    0.033407      -34.828635      -34.795228      -34.529791     -1.38
       3442       1721.0             0.02               303.19    0.033125      -34.828358      -34.795233      -34.529787     -1.36
       3443       1721.5             0.03               301.42    0.032931      -34.828165      -34.795234      -34.529784     -1.34
       3444       1722.0             0.02               300.76    0.032859      -34.828096      -34.795237      -34.529785     -1.35
       3445       1722.5             0.03               301.11    0.032898      -34.828141      -34.795243      -34.529788     -1.36
       3446       1723.0             0.02               302.04    0.033000      -34.828253      -34.795253      -34.529792     -1.38
       3447       1723.5             0.02               302.99    0.033104      -34.828368      -34.795264      -34.529795     -1.39
       3448       1724.0             0.02               303.56    0.033166      -34.828440      -34.795275      -34.529795     -1.40
       3449       1724.5             0.02               303.65    0.033175      -34.828458      -34.795283      -34.529794     -1.39
       3450       1725.0             0.02               303.41    0.033149      -34.828440      -34.795291      -34.529792     -1.38
       3451       1725.5             0.02               303.15    0.033121      -34.828418      -34.795297      -34.529790     -1.37
       3452       1726.0             0.02               303.16    0.033122      -34.828427      -34.795305      -34.529788     -1.36
       3453       1726.5             0.02               303.64    0.033174      -34.828489      -34.795314      -34.529788     -1.36
       3454       1727.0             0.02               304.62    0.033281      -34.828609      -34.795328      -34.529788     -1.36
       3455       1727.5             0.02               306.00    0.033432      -34.828778      -34.795347      -34.529790     -1.37
       3456       1728.0             0.02               307.52    0.033598      -34.828968      -34.795370      -34.529792     -1.38
       3457       1728.5             0.02               308.86    0.033744      -34.829142      -34.795398      -34.529795     -1.39
       3458       1729.0             0.02               309.63    0.033829      -34.829256      -34.795427      -34.529798     -1.41
       3459       1729.5             0.02               309.54    0.033819      -34.829273      -34.795455      -34.529799     -1.41
       3460       1730.0             0.02               308.48    0.033703      -34.829180      -34.795478      -34.529798     -1.41
       3461       1730.5             0.02               306.61    0.033499      -34.828992      -34.795493      -34.529795     -1.39
       3462       1731.0             0.02               304.37    0.033254      -34.828755      -34.795502      -34.529791     -1.38
       3463       1731.5             0.03               302.29    0.033027      -34.828532      -34.795505      -34.529788     -1.36
       3464       1732.0             0.02               300.83    0.032867      -34.828373      -34.795506      -34.529787     -1.36
       3465       1732.5             0.02               300.10    0.032787      -34.828295      -34.795508      -34.529788     -1.36
       3466       1733.0             0.02               299.92    0.032767      -34.828278      -34.795510      -34.529791     -1.37
       3467       1733.5             0.02               299.89    0.032764      -34.828277      -34.795513      -34.529793     -1.39
       3468       1734.0             0.02               299.65    0.032738      -34.828251      -34.795513      -34.529795     -1.39
       3469       1734.5             0.02               299.03    0.032671      -34.828180      -34.795510      -34.529794     -1.39
       3470       1735.0             0.02               298.09    0.032567      -34.828070      -34.795502      -34.529792     -1.38
       3471       1735.5             0.02               297.06    0.032456      -34.827947      -34.795492      -34.529790     -1.37
       3472       1736.0             0.02               296.30    0.032372      -34.827851      -34.795479      -34.529787     -1.36
       3473       1736.5             0.02               296.11    0.032351      -34.827817      -34.795466      -34.529786     -1.35
       3474       1737.0             0.02               296.72    0.032418      -34.827875      -34.795456      -34.529785     -1.35
       3475       1737.5             0.03               298.19    0.032578      -34.828031      -34.795452      -34.529786     -1.35
       3476       1738.0             0.02               300.35    0.032815      -34.828270      -34.795456      -34.529788     -1.36
       3477       1738.5             0.02               302.85    0.033088      -34.828555      -34.795467      -34.529792     -1.38
       3478       1739.0             0.03               305.21    0.033345      -34.828831      -34.795485      -34.529796     -1.40
       3479       1739.5             0.02               306.92    0.033533      -34.829041      -34.795508      -34.529798     -1.41
       3480       1740.0             0.02               307.67    0.033614      -34.829144      -34.795530      -34.529799     -1.41
       3481       1740.5             0.02               307.40    0.033585      -34.829133      -34.795548      -34.529797     -1.40
       3482       1741.0             0.02               306.43    0.033479      -34.829041      -34.795563      -34.529793     -1.38
       3483       1741.5             0.02               305.29    0.033355      -34.828928      -34.795573      -34.529789     -1.37
       3484       1742.0             0.02               304.53    0.033271      -34.828855      -34.795584      -34.529787     -1.36
       3485       1742.5             0.03               304.42    0.033259      -34.828856      -34.795597      -34.529788     -1.36
       3486       1743.0             0.02               304.84    0.033305      -34.828919      -34.795614      -34.529791     -1.37
       3487       1743.5             0.02               305.36    0.033362      -34.828995      -34.795633      -34.529795     -1.39
       3488       1744.0             0.02               305.43    0.033370      -34.829021      -34.795651      -34.529798     -1.41
       3489       1744.5             0.02               304.70    0.033290      -34.828954      -34.795664      -34.529798     -1.41
       3490       1745.0             0.02               303.09    0.033115      -34.828785      -34.795671      -34.529796     -1.40
       3491       1745.5             0.03               300.92    0.032877      -34.828547      -34.795670      -34.529792     -1.38
       3492       1746.0             0.02               298.69    0.032634      -34.828296      -34.795662      -34.529788     -1.36
       3493       1746.5             0.02               297.00    0.032449      -34.828099      -34.795650      -34.529784     -1.34
       3494       1747.0             0.02               296.31    0.032373      -34.828011      -34.795638      -34.529783     -1.34
       3495       1747.5             0.02               296.80    0.032427      -34.828057      -34.795630      -34.529784     -1.34
       3496       1748.0             0.02               298.35    0.032596      -34.828224      -34.795628      -34.529787     -1.36
       3497       1748.5             0.02               300.51    0.032832      -34.828466      -34.795634      -34.529791     -1.38
       3498       1749.0             0.02               302.68    0.033069      -34.828715      -34.795646      -34.529795     -1.39
       3499       1749.5             0.02               304.27    0.033243      -34.828904      -34.795661      -34.529798     -1.41
       3500       1750.0             0.02               304.93    0.033315      -34.828989      -34.795675      -34.529798     -1.41
       3501       1750.5             0.02               304.67    0.033287      -34.828972      -34.795685      -34.529795     -1.40
       3502       1751.0             0.02               303.95    0.033208      -34.828899      -34.795691      -34.529791     -1.37
       3503       1751.5             0.02               303.43    0.033152      -34.828847      -34.795696      -34.529786     -1.35
       3504       1752.0             0.02               303.76    0.033187      -34.828891      -34.795704      -34.529784     -1.34
       3505       1752.5             0.02               305.17    0.033341      -34.829062      -34.795721      -34.529786     -1.35
       3506       1753.0             0.02               307.37    0.033581      -34.829328      -34.795747      -34.529791     -1.37
       3507       1753.5             0.02               309.64    0.033830      -34.829609      -34.795780      -34.529797     -1.40
       3508       1754.0             0.02               311.15    0.033995      -34.829810      -34.795815      -34.529801     -1.42
       3509       1754.5             0.02               311.35    0.034017      -34.829865      -34.795847      -34.529802     -1.42
       3510       1755.0             0.02               310.16    0.033887      -34.829760      -34.795873      -34.529799     -1.41
       3511       1755.5             0.02               307.98    0.033648      -34.829538      -34.795890      -34.529794     -1.39
       3512       1756.0             0.02               305.50    0.033377      -34.829278      -34.795900      -34.529788     -1.36
       3513       1756.5             0.02               303.46    0.033154      -34.829061      -34.795906      -34.529785     -1.35
       3514       1757.0             0.02               302.36    0.033034      -34.828946      -34.795912      -34.529784     -1.34
       3515       1757.5             0.02               302.33    0.033032      -34.828952      -34.795920      -34.529785     -1.35
       3516       1758.0             0.02               303.13    0.033119      -34.829051      -34.795933      -34.529789     -1.37
       3517       1758.5             0.03               304.22    0.033238      -34.829187      -34.795949      -34.529794     -1.39
       3518       1759.0             0.02               304.97    0.033320      -34.829286      -34.795967      -34.529797     -1.40
       3519       1759.5             0.02               304.90    0.033312      -34.829294      -34.795982      -34.529799     -1.41
       3520       1760.0             0.02               303.83    0.033195      -34.829186      -34.795991      -34.529797     -1.40
       3521       1760.5             0.02               301.99    0.032994      -34.828987      -34.795993      -34.529793     -1.39
       3522       1761.0             0.02               299.99    0.032775      -34.828763      -34.795987      -34.529788     -1.36
       3523       1761.5             0.02               298.56    0.032619      -34.828598      -34.795979      -34.529783     -1.34
       3524       1762.0             0.02               298.29    0.032590      -34.828563      -34.795972      -34.529782     -1.33
       3525       1762.5             0.03               299.36    0.032707      -34.828680      -34.795973      -34.529785     -1.35
       3526       1763.0             0.02               301.38    0.032927      -34.828910      -34.795983      -34.529790     -1.37
       3527       1763.5             0.02               303.56    0.033165      -34.829164      -34.795999      -34.529796     -1.40
       3528       1764.0             0.02               305.07    0.033330      -34.829347      -34.796017      -34.529800     -1.42
       3529       1764.5             0.02               305.38    0.033365      -34.829397      -34.796032      -34.529800     -1.42
       3530       1765.0             0.02               304.48    0.033266      -34.829308      -34.796042      -34.529797     -1.40
       3531       1765.5             0.02               302.79    0.033082      -34.829126      -34.796044      -34.529792     -1.38
       3532       1766.0             0.02               300.98    0.032884      -34.828926      -34.796043      -34.529788     -1.36
       3533       1766.5             0.02               299.66    0.032739      -34.828778      -34.796039      -34.529785     -1.35
       3534       1767.0             0.03               299.18    0.032687      -34.828724      -34.796037      -34.529785     -1.35
       3535       1767.5             0.02               299.54    0.032726      -34.828764      -34.796038      -34.529787     -1.36
       3536       1768.0             0.02               300.41    0.032821      -34.828863      -34.796042      -34.529791     -1.37
       3537       1768.5             0.02               301.29    0.032918      -34.828967      -34.796049      -34.529794     -1.39
       3538       1769.0             0.02               301.71    0.032964      -34.829020      -34.796057      -34.529797     -1.40
       3539       1769.5             0.02               301.36    0.032925      -34.828986      -34.796061      -34.529797     -1.40
       3540       1770.0             0.02               300.20    0.032798      -34.828858      -34.796060      -34.529796     -1.40
       3541       1770.5             0.02               298.47    0.032610      -34.828662      -34.796052      -34.529792     -1.38
       3542       1771.0             0.02               296.66    0.032411      -34.828451      -34.796039      -34.529789     -1.36
       3543       1771.5             0.02               295.29    0.032262      -34.828285      -34.796023      -34.529785     -1.35
       3544       1772.0             0.02               294.80    0.032209      -34.828216      -34.796007      -34.529784     -1.34
       3545       1772.5             0.02               295.32    0.032265      -34.828261      -34.795996      -34.529786     -1.35
       3546       1773.0             0.02               296.58    0.032403      -34.828393      -34.795990      -34.529790     -1.37
       3547       1773.5             0.02               298.07    0.032566      -34.828555      -34.795989      -34.529794     -1.39
       3548       1774.0             0.02               299.20    0.032689      -34.828678      -34.795989      -34.529797     -1.40
       3549       1774.5             0.02               299.61    0.032734      -34.828722      -34.795988      -34.529796     -1.40
       3550       1775.0             0.02               299.31    0.032701      -34.828684      -34.795984      -34.529794     -1.39
       3551       1775.5             0.02               298.61    0.032625      -34.828601      -34.795976      -34.529790     -1.37
       3552       1776.0             0.02               298.00    0.032558      -34.828525      -34.795967      -34.529787     -1.36
       3553       1776.5             0.03               297.86    0.032542      -34.828502      -34.795960      -34.529786     -1.35
       3554       1777.0             0.02               298.38    0.032600      -34.828556      -34.795956      -34.529786     -1.35
       3555       1777.5             0.02               299.50    0.032722      -34.828679      -34.795956      -34.529788     -1.36
       3556       1778.0             0.02               300.96    0.032881      -34.828842      -34.795962      -34.529791     -1.37
       3557       1778.5             0.02               302.38    0.033037      -34.829007      -34.795971      -34.529793     -1.39
       3558       1779.0             0.02               303.46    0.033154      -34.829136      -34.795982      -34.529795     -1.39
       3559       1779.5             0.02               303.98    0.033211      -34.829205      -34.795994      -34.529795     -1.39
       3560       1780.0             0.02               303.90    0.033202      -34.829206      -34.796004      -34.529795     -1.39
       3561       1780.5             0.02               303.33    0.033140      -34.829152      -34.796012      -34.529793     -1.38
       3562       1781.0             0.02               302.50    0.033050      -34.829067      -34.796017      -34.529791     -1.38
       3563       1781.5             0.03               301.69    0.032961      -34.828981      -34.796020      -34.529789     -1.37
       3564       1782.0             0.02               301.16    0.032904      -34.828925      -34.796022      -34.529788     -1.36
       3565       1782.5             0.02               301.04    0.032890      -34.828915      -34.796025      -34.529789     -1.36
       3566       1783.0             0.02               301.25    0.032913      -34.828943      -34.796031      -34.529791     -1.37
       3567       1783.5             0.02               301.54    0.032944      -34.828982      -34.796037      -34.529793     -1.38
       3568       1784.0             0.02               301.60    0.032951      -34.828994      -34.796043      -34.529794     -1.39
       3569       1784.5             0.02               301.23    0.032911      -34.828958      -34.796046      -34.529794     -1.39
       3570       1785.0             0.02               300.45    0.032825      -34.828871      -34.796046      -34.529793     -1.38
       3571       1785.5             0.03               299.46    0.032717      -34.828759      -34.796042      -34.529790     -1.37
       3572       1786.0             0.02               298.58    0.032621      -34.828657      -34.796036      -34.529788     -1.36
       3573       1786.5             0.02               298.10    0.032569      -34.828598      -34.796029      -34.529787     -1.36
       3574       1787.0             0.02               298.17    0.032576      -34.828601      -34.796024      -34.529787     -1.36
       3575       1787.5             0.02               298.77    0.032642      -34.828664      -34.796022      -34.529788     -1.36
       3576       1788.0             0.02               299.78    0.032752      -34.828775      -34.796023      -34.529789     -1.37
       3577       1788.5             0.02               300.98    0.032884      -34.828911      -34.796027      -34.529790     -1.37
       3578       1789.0             0.02               302.21    0.033017      -34.829051      -34.796034      -34.529791     -1.38
       3579       1789.5             0.02               303.31    0.033138      -34.829181      -34.796044      -34.529792     -1.38
       3580       1790.0             0.02               304.19    0.033235      -34.829291      -34.796056      -34.529793     -1.38
       3581       1790.5             0.02               304.83    0.033304      -34.829374      -34.796070      -34.529793     -1.38
       3582       1791.0             0.02               305.21    0.033346      -34.829429      -34.796084      -34.529792     -1.38
       3583       1791.5             0.02               305.40    0.033366      -34.829464      -34.796098      -34.529792     -1.38
       3584       1792.0             0.02               305.51    0.033378      -34.829491      -34.796113      -34.529791     -1.37
       3585       1792.5             0.02               305.69    0.033398      -34.829526      -34.796128      -34.529790     -1.37
       3586       1793.0             0.02               306.00    0.033432      -34.829577      -34.796145      -34.529790     -1.37
       3587       1793.5             0.02               306.37    0.033473      -34.829637      -34.796164      -34.529792     -1.38
       3588       1794.0             0.03               306.63    0.033500      -34.829685      -34.796185      -34.529793     -1.39
       3589       1794.5             0.02               306.55    0.033492      -34.829696      -34.796204      -34.529794     -1.39
       3590       1795.0             0.02               306.02    0.033434      -34.829655      -34.796220      -34.529794     -1.39
       3591       1795.5             0.02               305.08    0.033332      -34.829565      -34.796233      -34.529793     -1.38
       3592       1796.0             0.02               303.89    0.033201      -34.829444      -34.796243      -34.529791     -1.38
       3593       1796.5             0.02               302.66    0.033068      -34.829316      -34.796249      -34.529790     -1.37
       3594       1797.0             0.02               301.61    0.032952      -34.829205      -34.796252      -34.529789     -1.36
       3595       1797.5             0.02               300.86    0.032870      -34.829124      -34.796254      -34.529788     -1.36
       3596       1798.0             0.02               300.46    0.032827      -34.829082      -34.796256      -34.529788     -1.36
       3597       1798.5             0.03               300.40    0.032821      -34.829078      -34.796257      -34.529789     -1.37
       3598       1799.0             0.03               300.61    0.032843      -34.829102      -34.796260      -34.529790     -1.37
       3599       1799.5             0.03               300.94    0.032879      -34.829143      -34.796264      -34.529791     -1.37
       3600       1800.0             0.02               301.24    0.032912      -34.829181      -34.796268      -34.529792     -1.38
       3601       1800.5             0.02               301.38    0.032927      -34.829200      -34.796273      -34.529793     -1.38
       3602       1801.0             0.02               301.29    0.032917      -34.829193      -34.796276      -34.529792     -1.38
       3603       1801.5             0.02               301.05    0.032891      -34.829168      -34.796277      -34.529791     -1.37
       3604       1802.0             0.02               300.89    0.032873      -34.829151      -34.796278      -34.529788     -1.36
       3605       1802.5             0.03               301.09    0.032895      -34.829174      -34.796279      -34.529787     -1.36
       3606       1803.0             0.03               301.85    0.032978      -34.829262      -34.796284      -34.529787     -1.36
       3607       1803.5             0.02               303.13    0.033119      -34.829414      -34.796295      -34.529789     -1.37
       3608       1804.0             0.03               304.67    0.033286      -34.829597      -34.796311      -34.529792     -1.38
       3609       1804.5             0.02               306.03    0.033436      -34.829767      -34.796331      -34.529795     -1.39
       3610       1805.0             0.03               306.86    0.033526      -34.829877      -34.796351      -34.529796     -1.40
       3611       1805.5             0.03               306.96    0.033537      -34.829907      -34.796370      -34.529796     -1.40
       3612       1806.0             0.02               306.39    0.033474      -34.829861      -34.796386      -34.529794     -1.39
       3613       1806.5             0.03               305.39    0.033365      -34.829764      -34.796399      -34.529791     -1.38
       3614       1807.0             0.02               304.30    0.033247      -34.829655      -34.796409      -34.529789     -1.37
       3615       1807.5             0.03               303.46    0.033154      -34.829571      -34.796417      -34.529788     -1.36
       3616       1808.0             0.02               303.04    0.033109      -34.829534      -34.796425      -34.529787     -1.36
       3617       1808.5             0.02               303.08    0.033113      -34.829548      -34.796435      -34.529789     -1.36
       3618       1809.0             0.02               303.38    0.033146      -34.829593      -34.796447      -34.529791     -1.37
       3619       1809.5             0.03               303.65    0.033175      -34.829635      -34.796459      -34.529793     -1.39
       3620       1810.0             0.02               303.58    0.033168      -34.829639      -34.796471      -34.529795     -1.39
       3621       1810.5             0.03               302.98    0.033102      -34.829582      -34.796479      -34.529795     -1.39
       3622       1811.0             0.02               301.88    0.032982      -34.829465      -34.796483      -34.529793     -1.38
       3623       1811.5             0.02               300.55    0.032837      -34.829318      -34.796481      -34.529790     -1.37
       3624       1812.0             0.02               299.46    0.032717      -34.829194      -34.796476      -34.529786     -1.35
       3625       1812.5             0.02               299.08    0.032676      -34.829147      -34.796471      -34.529784     -1.34
       3626       1813.0             0.02               299.70    0.032744      -34.829214      -34.796470      -34.529784     -1.34
       3627       1813.5             0.02               301.26    0.032915      -34.829391      -34.796477      -34.529787     -1.36
       3628       1814.0             0.02               303.37    0.033145      -34.829636      -34.796491      -34.529791     -1.37
       3629       1814.5             0.02               305.43    0.033370      -34.829879      -34.796510      -34.529795     -1.39
       3630       1815.0             0.03               306.89    0.033529      -34.830060      -34.796531      -34.529797     -1.40
       3631       1815.5             0.02               307.48    0.033593      -34.830145      -34.796551      -34.529796     -1.40
       3632       1816.0             0.02               307.28    0.033572      -34.830141      -34.796569      -34.529794     -1.39
       3633       1816.5             0.02               306.67    0.033505      -34.830089      -34.796584      -34.529790     -1.37
       3634       1817.0             0.02               306.12    0.033445      -34.830043      -34.796598      -34.529787     -1.36
       3635       1817.5             0.02               306.01    0.033433      -34.830048      -34.796614      -34.529786     -1.35
       3636       1818.0             0.02               306.50    0.033486      -34.830120      -34.796634      -34.529787     -1.36
       3637       1818.5             0.02               307.40    0.033585      -34.830242      -34.796657      -34.529790     -1.37
       3638       1819.0             0.02               308.31    0.033685      -34.830369      -34.796684      -34.529794     -1.39
       3639       1819.5             0.03               308.76    0.033733      -34.830445      -34.796711      -34.529797     -1.40
       3640       1820.0             0.02               308.36    0.033690      -34.830426      -34.796736      -34.529798     -1.41
       3641       1820.5             0.02               307.00    0.033542      -34.830296      -34.796754      -34.529797     -1.40
       3642       1821.0             0.02               304.87    0.033308      -34.830074      -34.796765      -34.529794     -1.39
       3643       1821.5             0.02               302.39    0.033038      -34.829806      -34.796768      -34.529790     -1.37
       3644       1822.0             0.02               300.11    0.032789      -34.829554      -34.796765      -34.529786     -1.35
       3645       1822.5             0.02               298.52    0.032615      -34.829373      -34.796759      -34.529784     -1.34
       3646       1823.0             0.02               297.87    0.032544      -34.829296      -34.796753      -34.529784     -1.35
       3647       1823.5             0.02               298.09    0.032567      -34.829317      -34.796750      -34.529787     -1.36
       3648       1824.0             0.02               298.81    0.032646      -34.829396      -34.796750      -34.529791     -1.37
       3649       1824.5             0.02               299.52    0.032724      -34.829476      -34.796752      -34.529794     -1.39
       3650       1825.0             0.02               299.84    0.032759      -34.829511      -34.796752      -34.529794     -1.39
       3651       1825.5             0.02               299.64    0.032737      -34.829487      -34.796750      -34.529793     -1.38
       3652       1826.0             0.02               299.16    0.032684      -34.829428      -34.796744      -34.529789     -1.37
       3653       1826.5             0.02               298.83    0.032649      -34.829386      -34.796737      -34.529786     -1.35
       3654       1827.0             0.02               299.13    0.032681      -34.829414      -34.796733      -34.529784     -1.34
       3655       1827.5             0.02               300.29    0.032808      -34.829541      -34.796734      -34.529784     -1.34
       3656       1828.0             0.02               302.23    0.033020      -34.829763      -34.796743      -34.529787     -1.36
       3657       1828.5             0.02               304.59    0.033278      -34.830037      -34.796759      -34.529791     -1.37
       3658       1829.0             0.02               306.82    0.033522      -34.830304      -34.796782      -34.529794     -1.39
       3659       1829.5             0.02               308.43    0.033697      -34.830505      -34.796808      -34.529797     -1.40
       3660       1830.0             0.02               309.12    0.033773      -34.830606      -34.796834      -34.529797     -1.40
       3661       1830.5             0.02               308.88    0.033747      -34.830604      -34.796857      -34.529795     -1.40
       3662       1831.0             0.02               307.95    0.033645      -34.830522      -34.796877      -34.529793     -1.38
       3663       1831.5             0.02               306.67    0.033505      -34.830399      -34.796893      -34.529791     -1.37
       3664       1832.0             0.02               305.38    0.033364      -34.830271      -34.796907      -34.529789     -1.37
       3665       1832.5             0.02               304.29    0.033245      -34.830164      -34.796919      -34.529789     -1.36
       3666       1833.0             0.02               303.47    0.033155      -34.830085      -34.796929      -34.529789     -1.37
       3667       1833.5             0.02               302.79    0.033081      -34.830020      -34.796939      -34.529791     -1.38
       3668       1834.0             0.02               302.01    0.032997      -34.829943      -34.796946      -34.529793     -1.38
       3669       1834.5             0.02               300.91    0.032876      -34.829826      -34.796949      -34.529794     -1.39
       3670       1835.0             0.02               299.40    0.032710      -34.829657      -34.796947      -34.529793     -1.38
       3671       1835.5             0.02               297.61    0.032516      -34.829453      -34.796937      -34.529790     -1.37
       3672       1836.0             0.02               295.93    0.032332      -34.829254      -34.796922      -34.529787     -1.36
       3673       1836.5             0.02               294.78    0.032206      -34.829112      -34.796905      -34.529784     -1.34
       3674       1837.0             0.02               294.50    0.032176      -34.829065      -34.796889      -34.529783     -1.34
       3675       1837.5             0.02               295.18    0.032250      -34.829127      -34.796877      -34.529784     -1.35
       3676       1838.0             0.02               296.62    0.032407      -34.829277      -34.796870      -34.529787     -1.36
       3677       1838.5             0.02               298.44    0.032606      -34.829475      -34.796869      -34.529790     -1.37
       3678       1839.0             0.03               300.23    0.032802      -34.829673      -34.796871      -34.529792     -1.38
       3679       1839.5             0.02               301.69    0.032962      -34.829838      -34.796877      -34.529793     -1.38
       3680       1840.0             0.03               302.76    0.033077      -34.829961      -34.796884      -34.529792     -1.38
       3681       1840.5             0.03               303.52    0.033161      -34.830053      -34.796892      -34.529791     -1.37
       3682       1841.0             0.03               304.19    0.033235      -34.830137      -34.796903      -34.529790     -1.37
       3683       1841.5             0.02               304.92    0.033314      -34.830230      -34.796916      -34.529789     -1.37
       3684       1842.0             0.02               305.72    0.033401      -34.830334      -34.796933      -34.529790     -1.37
       3685       1842.5             0.03               306.48    0.033485      -34.830438      -34.796953      -34.529792     -1.38
       3686       1843.0             0.02               307.03    0.033544      -34.830518      -34.796974      -34.529793     -1.39
       3687       1843.5             0.03               307.15    0.033558      -34.830553      -34.796995      -34.529794     -1.39
       3688       1844.0             0.03               306.71    0.033510      -34.830524      -34.797014      -34.529795     -1.39
       3689       1844.5             0.03               305.65    0.033394      -34.830423      -34.797030      -34.529794     -1.39
       3690       1845.0             0.03               304.06    0.033220      -34.830260      -34.797040      -34.529793     -1.38
       3691       1845.5             0.03               302.18    0.033015      -34.830058      -34.797043      -34.529790     -1.37
       3692       1846.0             0.03               300.33    0.032813      -34.829855      -34.797042      -34.529788     -1.36
       3693       1846.5             0.02               298.84    0.032650      -34.829687      -34.797037      -34.529786     -1.35
       3694       1847.0             0.03               297.90    0.032547      -34.829578      -34.797031      -34.529786     -1.35
       3695       1847.5             0.03               297.53    0.032506      -34.829531      -34.797025      -34.529787     -1.36
       3696       1848.0             0.02               297.58    0.032512      -34.829532      -34.797020      -34.529789     -1.36
       3697       1848.5             0.03               297.83    0.032539      -34.829554      -34.797015      -34.529790     -1.37
       3698       1849.0             0.02               298.09    0.032567      -34.829578      -34.797010      -34.529790     -1.37
       3699       1849.5             0.03               298.30    0.032591      -34.829595      -34.797005      -34.529790     -1.37
       3700       1850.0             0.02               298.56    0.032619      -34.829619      -34.796999      -34.529788     -1.36
       3701       1850.5             0.02               299.06    0.032674      -34.829669      -34.796995      -34.529787     -1.36
       3702       1851.0             0.02               299.97    0.032774      -34.829768      -34.796995      -34.529787     -1.36
       3703       1851.5             0.03               301.35    0.032924      -34.829924      -34.796999      -34.529787     -1.36
       3704       1852.0             0.02               303.08    0.033113      -34.830123      -34.797010      -34.529789     -1.37
       3705       1852.5             0.02               304.92    0.033314      -34.830340      -34.797026      -34.529791     -1.38
       3706       1853.0             0.03               306.59    0.033496      -34.830542      -34.797046      -34.529793     -1.38
       3707       1853.5             0.03               307.84    0.033633      -34.830702      -34.797069      -34.529794     -1.39
       3708       1854.0             0.03               308.53    0.033708      -34.830801      -34.797093      -34.529795     -1.39
       3709       1854.5             0.03               308.60    0.033716      -34.830833      -34.797117      -34.529794     -1.39
       3710       1855.0             0.03               308.10    0.033662      -34.830800      -34.797139      -34.529793     -1.39
       3711       1855.5             0.02               307.16    0.033559      -34.830717      -34.797158      -34.529792     -1.38
       3712       1856.0             0.02               305.95    0.033427      -34.830600      -34.797173      -34.529791     -1.38
       3713       1856.5             0.02               304.62    0.033281      -34.830467      -34.797186      -34.529790     -1.37
       3714       1857.0             0.02               303.27    0.033133      -34.830328      -34.797195      -34.529790     -1.37
       3715       1857.5             0.02               301.91    0.032986      -34.830186      -34.797200      -34.529790     -1.37
       3716       1858.0             0.02               300.54    0.032835      -34.830037      -34.797202      -34.529791     -1.37
       3717       1858.5             0.02               299.09    0.032677      -34.829877      -34.797199      -34.529791     -1.37
       3718       1859.0             0.02               297.59    0.032513      -34.829705      -34.797192      -34.529790     -1.37
       3719       1859.5             0.02               296.10    0.032351      -34.829531      -34.797180      -34.529789     -1.37
       3720       1860.0             0.02               294.78    0.032206      -34.829370      -34.797164      -34.529788     -1.36
       3721       1860.5             0.02               293.80    0.032099      -34.829245      -34.797146      -34.529787     -1.36
       3722       1861.0             0.02               293.33    0.032048      -34.829174      -34.797126      -34.529786     -1.35
       3723       1861.5             0.03               293.45    0.032061      -34.829170      -34.797108      -34.529786     -1.35
       3724       1862.0             0.02               294.12    0.032134      -34.829227      -34.797093      -34.529787     -1.36
       3725       1862.5             0.03               295.21    0.032253      -34.829334      -34.797080      -34.529788     -1.36
       3726       1863.0             0.02               296.56    0.032401      -34.829473      -34.797072      -34.529789     -1.37
       3727       1863.5             0.02               298.06    0.032564      -34.829631      -34.797067      -34.529790     -1.37
       3728       1864.0             0.02               299.61    0.032734      -34.829800      -34.797066      -34.529790     -1.37
       3729       1864.5             0.03               301.16    0.032903      -34.829973      -34.797070      -34.529791     -1.37
       3730       1865.0             0.03               302.61    0.033062      -34.830140      -34.797078      -34.529791     -1.38
       3731       1865.5             0.02               303.86    0.033198      -34.830287      -34.797089      -34.529792     -1.38
       3732       1866.0             0.02               304.79    0.033300      -34.830403      -34.797103      -34.529793     -1.38
       3733       1866.5             0.03               305.33    0.033359      -34.830477      -34.797118      -34.529793     -1.38
       3734       1867.0             0.03               305.49    0.033377      -34.830510      -34.797133      -34.529792     -1.38
       3735       1867.5             0.02               305.33    0.033359      -34.830506      -34.797147      -34.529792     -1.38
       3736       1868.0             0.03               304.94    0.033317      -34.830477      -34.797161      -34.529791     -1.38
       3737       1868.5             0.02               304.40    0.033257      -34.830430      -34.797173      -34.529791     -1.37
       3738       1869.0             0.02               303.73    0.033184      -34.830368      -34.797184      -34.529791     -1.38
       3739       1869.5             0.03               302.91    0.033094      -34.830286      -34.797192      -34.529791     -1.38
       3740       1870.0             0.02               301.90    0.032984      -34.830181      -34.797198      -34.529792     -1.38
       3741       1870.5             0.03               300.70    0.032853      -34.830052      -34.797199      -34.529791     -1.38
       3742       1871.0             0.02               299.38    0.032708      -34.829905      -34.797197      -34.529790     -1.37
       3743       1871.5             0.02               298.04    0.032562      -34.829752      -34.797190      -34.529789     -1.37
       3744       1872.0             0.03               296.83    0.032430      -34.829610      -34.797180      -34.529788     -1.36
       3745       1872.5             0.02               295.90    0.032328      -34.829496      -34.797168      -34.529787     -1.36
       3746       1873.0             0.02               295.40    0.032274      -34.829427      -34.797154      -34.529786     -1.35
       3747       1873.5             0.03               295.46    0.032281      -34.829421      -34.797140      -34.529786     -1.35
       3748       1874.0             0.02               296.15    0.032356      -34.829486      -34.797130      -34.529786     -1.35
       3749       1874.5             0.02               297.38    0.032490      -34.829614      -34.797124      -34.529787     -1.36
       3750       1875.0             0.02               298.93    0.032659      -34.829782      -34.797123      -34.529789     -1.37
       3751       1875.5             0.02               300.51    0.032832      -34.829958      -34.797126      -34.529791     -1.38
       3752       1876.0             0.02               301.87    0.032981      -34.830113      -34.797132      -34.529792     -1.38
       3753       1876.5             0.02               302.94    0.033098      -34.830237      -34.797140      -34.529791     -1.38
       3754       1877.0             0.03               303.80    0.033192      -34.830341      -34.797149      -34.529789     -1.37
       3755       1877.5             0.02               304.66    0.033286      -34.830446      -34.797160      -34.529788     -1.36
       3756       1878.0             0.02               305.71    0.033400      -34.830576      -34.797176      -34.529788     -1.36
       3757       1878.5             0.02               306.98    0.033539      -34.830735      -34.797196      -34.529789     -1.36
       3758       1879.0             0.02               308.32    0.033685      -34.830907      -34.797222      -34.529791     -1.37
       3759       1879.5             0.02               309.44    0.033808      -34.831059      -34.797251      -34.529793     -1.39
       3760       1880.0             0.02               310.02    0.033871      -34.831152      -34.797281      -34.529795     -1.39
       3761       1880.5             0.02               309.84    0.033852      -34.831161      -34.797308      -34.529795     -1.40
       3762       1881.0             0.03               308.91    0.033750      -34.831082      -34.797332      -34.529794     -1.39
       3763       1881.5             0.02               307.40    0.033585      -34.830936      -34.797351      -34.529792     -1.38
       3764       1882.0             0.02               305.64    0.033393      -34.830757      -34.797364      -34.529790     -1.37
       3765       1882.5             0.02               303.97    0.033210      -34.830584      -34.797373      -34.529788     -1.36
       3766       1883.0             0.02               302.65    0.033066      -34.830445      -34.797380      -34.529787     -1.36
       3767       1883.5             0.02               301.79    0.032972      -34.830357      -34.797385      -34.529787     -1.36
       3768       1884.0             0.02               301.38    0.032927      -34.830317      -34.797390      -34.529788     -1.36
       3769       1884.5             0.02               301.24    0.032912      -34.830307      -34.797395      -34.529789     -1.37
       3770       1885.0             0.02               301.17    0.032905      -34.830304      -34.797399      -34.529791     -1.37
       3771       1885.5             0.02               301.01    0.032887      -34.830289      -34.797402      -34.529791     -1.37
       3772       1886.0             0.02               300.75    0.032859      -34.830262      -34.797403      -34.529789     -1.37
       3773       1886.5             0.02               300.58    0.032840      -34.830242      -34.797402      -34.529787     -1.36
       3774       1887.0             0.02               300.78    0.032862      -34.830264      -34.797402      -34.529785     -1.35
       3775       1887.5             0.02               301.62    0.032954      -34.830360      -34.797406      -34.529784     -1.34
       3776       1888.0             0.02               303.20    0.033126      -34.830542      -34.797416      -34.529785     -1.35
       3777       1888.5             0.02               305.33    0.033359      -34.830793      -34.797434      -34.529788     -1.36
       3778       1889.0             0.02               307.62    0.033609      -34.831068      -34.797459      -34.529792     -1.38
       3779       1889.5             0.02               309.57    0.033822      -34.831311      -34.797489      -34.529795     -1.39
       3780       1890.0             0.02               310.79    0.033955      -34.831475      -34.797520      -34.529796     -1.40
       3781       1890.5             0.02               311.11    0.033990      -34.831541      -34.797551      -34.529795     -1.39
       3782       1891.0             0.02               310.67    0.033942      -34.831521      -34.797578      -34.529793     -1.38
       3783       1891.5             0.02               309.81    0.033849      -34.831452      -34.797603      -34.529790     -1.37
       3784       1892.0             0.03               308.90    0.033749      -34.831375      -34.797626      -34.529788     -1.36
       3785       1892.5             0.03               308.16    0.033668      -34.831317      -34.797649      -34.529788     -1.36
       3786       1893.0             0.03               307.57    0.033604      -34.831276      -34.797672      -34.529790     -1.37
       3787       1893.5             0.04               306.96    0.033537      -34.831231      -34.797693      -34.529792     -1.38
       3788       1894.0             0.03               306.06    0.033439      -34.831150      -34.797712      -34.529793     -1.39
       3789       1894.5             0.03               304.66    0.033286      -34.831011      -34.797725      -34.529794     -1.39
       3790       1895.0             0.04               302.73    0.033075      -34.830806      -34.797732      -34.529793     -1.38
       3791       1895.5             0.03               300.41    0.032821      -34.830552      -34.797731      -34.529790     -1.37
       3792       1896.0             0.03               298.03    0.032561      -34.830283      -34.797722      -34.529787     -1.36
       3793       1896.5             0.03               296.02    0.032341      -34.830049      -34.797708      -34.529784     -1.34
       3794       1897.0             0.03               294.75    0.032203      -34.829894      -34.797691      -34.529783     -1.34
       3795       1897.5             0.03               294.45    0.032170      -34.829846      -34.797676      -34.529783     -1.34
       3796       1898.0             0.04               295.06    0.032237      -34.829901      -34.797664      -34.529785     -1.35
       3797       1898.5             0.03               296.31    0.032373      -34.830030      -34.797657      -34.529788     -1.36
       3798       1899.0             0.03               297.74    0.032529      -34.830183      -34.797654      -34.529791     -1.37
       3799       1899.5             0.03               298.93    0.032660      -34.830312      -34.797653      -34.529793     -1.38
       3800       1900.0             0.03               299.65    0.032738      -34.830389      -34.797651      -34.529793     -1.38
       3801       1900.5             0.02               299.93    0.032769      -34.830418      -34.797649      -34.529790     -1.37
       3802       1901.0             0.03               300.08    0.032786      -34.830432      -34.797646      -34.529788     -1.36
       3803       1901.5             0.03               300.50    0.032831      -34.830477      -34.797646      -34.529785     -1.35
       3804       1902.0             0.02               301.47    0.032937      -34.830586      -34.797650      -34.529785     -1.35
       3805       1902.5             0.03               302.98    0.033103      -34.830763      -34.797660      -34.529787     -1.36
       3806       1903.0             0.02               304.75    0.033296      -34.830973      -34.797677      -34.529791     -1.37
       3807       1903.5             0.03               306.28    0.033463      -34.831161      -34.797698      -34.529794     -1.39
       3808       1904.0             0.03               307.11    0.033553      -34.831273      -34.797720      -34.529796     -1.40
       3809       1904.5             0.03               306.96    0.033537      -34.831276      -34.797740      -34.529796     -1.40
       3810       1905.0             0.03               305.85    0.033415      -34.831169      -34.797754      -34.529795     -1.39
       3811       1905.5             0.02               304.04    0.033217      -34.830980      -34.797762      -34.529792     -1.38
       3812       1906.0             0.03               301.96    0.032991      -34.830756      -34.797764      -34.529788     -1.36
       3813       1906.5             0.02               300.09    0.032787      -34.830549      -34.797762      -34.529786     -1.35
       3814       1907.0             0.03               298.77    0.032642      -34.830400      -34.797758      -34.529784     -1.35
       3815       1907.5             0.02               298.14    0.032573      -34.830326      -34.797753      -34.529785     -1.35
       3816       1908.0             0.02               298.09    0.032568      -34.830317      -34.797750      -34.529787     -1.36
       3817       1908.5             0.03               298.32    0.032593      -34.830341      -34.797748      -34.529790     -1.37
       3818       1909.0             0.03               298.47    0.032610      -34.830355      -34.797746      -34.529792     -1.38
       3819       1909.5             0.05               298.25    0.032585      -34.830326      -34.797741      -34.529793     -1.38
       3820       1910.0             0.03               297.58    0.032512      -34.830245      -34.797733      -34.529791     -1.38
       3821       1910.5             0.04               296.66    0.032412      -34.830133      -34.797721      -34.529788     -1.36
       3822       1911.0             0.03               295.94    0.032333      -34.830039      -34.797706      -34.529785     -1.35
       3823       1911.5             0.03               295.87    0.032326      -34.830018      -34.797692      -34.529782     -1.34
       3824       1912.0             0.03               296.77    0.032424      -34.830107      -34.797683      -34.529783     -1.34
       3825       1912.5             0.03               298.59    0.032623      -34.830305      -34.797682      -34.529785     -1.35
       3826       1913.0             0.03               300.95    0.032881      -34.830569      -34.797689      -34.529789     -1.37
       3827       1913.5             0.03               303.26    0.033133      -34.830835      -34.797702      -34.529793     -1.39
       3828       1914.0             0.03               304.97    0.033320      -34.831038      -34.797718      -34.529796     -1.40
       3829       1914.5             0.03               305.78    0.033408      -34.831143      -34.797734      -34.529796     -1.40
       3830       1915.0             0.03               305.71    0.033401      -34.831149      -34.797748      -34.529794     -1.39
       3831       1915.5             0.03               305.04    0.033327      -34.831086      -34.797759      -34.529791     -1.37
       3832       1916.0             0.03               304.16    0.033231      -34.830999      -34.797768      -34.529788     -1.36
       3833       1916.5             0.02               303.44    0.033153      -34.830929      -34.797776      -34.529786     -1.35
       3834       1917.0             0.03               303.11    0.033117      -34.830901      -34.797785      -34.529786     -1.35
       3835       1917.5             0.02               303.17    0.033123      -34.830918      -34.797795      -34.529788     -1.36
       3836       1918.0             0.03               303.44    0.033152      -34.830959      -34.797807      -34.529790     -1.37
       3837       1918.5             0.03               303.61    0.033171      -34.830990      -34.797819      -34.529792     -1.38
       3838       1919.0             0.02               303.40    0.033148      -34.830978      -34.797830      -34.529793     -1.39
       3839       1919.5             0.02               302.61    0.033061      -34.830899      -34.797837      -34.529793     -1.39
       3840       1920.0             0.03               301.27    0.032915      -34.830755      -34.797839      -34.529792     -1.38
       3841       1920.5             0.02               299.64    0.032737      -34.830573      -34.797835      -34.529789     -1.37
       3842       1921.0             0.02               298.14    0.032573      -34.830400      -34.797827      -34.529786     -1.35
       3843       1921.5             0.02               297.20    0.032470      -34.830287      -34.797817      -34.529784     -1.34
       3844       1922.0             0.02               297.08    0.032457      -34.830266      -34.797809      -34.529784     -1.34
       3845       1922.5             0.02               297.77    0.032533      -34.830337      -34.797805      -34.529786     -1.35
       3846       1923.0             0.02               298.97    0.032664      -34.830469      -34.797805      -34.529789     -1.36
       3847       1923.5             0.02               300.24    0.032803      -34.830611      -34.797808      -34.529791     -1.38
       3848       1924.0             0.02               301.21    0.032909      -34.830721      -34.797813      -34.529793     -1.38
       3849       1924.5             0.02               301.72    0.032965      -34.830782      -34.797817      -34.529792     -1.38
       3850       1925.0             0.02               301.87    0.032981      -34.830801      -34.797820      -34.529790     -1.37
       3851       1925.5             0.02               301.88    0.032982      -34.830805      -34.797824      -34.529788     -1.36
       3852       1926.0             0.02               301.99    0.032994      -34.830823      -34.797828      -34.529787     -1.36
       3853       1926.5             0.02               302.37    0.033035      -34.830870      -34.797835      -34.529787     -1.36
       3854       1927.0             0.02               303.01    0.033105      -34.830949      -34.797844      -34.529788     -1.36
       3855       1927.5             0.02               303.81    0.033193      -34.831048      -34.797856      -34.529789     -1.37
       3856       1928.0             0.02               304.59    0.033278      -34.831148      -34.797870      -34.529790     -1.37
       3857       1928.5             0.02               305.15    0.033339      -34.831225      -34.797886      -34.529792     -1.38
       3858       1929.0             0.02               305.35    0.033361      -34.831263      -34.797901      -34.529792     -1.38
       3859       1929.5             0.02               305.10    0.033333      -34.831249      -34.797916      -34.529792     -1.38
       3860       1930.0             0.02               304.39    0.033257      -34.831184      -34.797928      -34.529792     -1.38
       3861       1930.5             0.02               303.33    0.033141      -34.831077      -34.797936      -34.529791     -1.37
       3862       1931.0             0.02               302.09    0.033005      -34.830945      -34.797940      -34.529789     -1.37
       3863       1931.5             0.02               300.87    0.032871      -34.830812      -34.797941      -34.529788     -1.36
       3864       1932.0             0.02               299.84    0.032759      -34.830699      -34.797940      -34.529787     -1.36
       3865       1932.5             0.03               299.09    0.032677      -34.830615      -34.797938      -34.529788     -1.36
       3866       1933.0             0.03               298.58    0.032621      -34.830556      -34.797935      -34.529788     -1.36
       3867       1933.5             0.02               298.19    0.032578      -34.830509      -34.797931      -34.529789     -1.37
       3868       1934.0             0.02               297.81    0.032537      -34.830462      -34.797925      -34.529789     -1.37
       3869       1934.5             0.02               297.42    0.032495      -34.830411      -34.797917      -34.529789     -1.37
       3870       1935.0             0.02               297.07    0.032456      -34.830364      -34.797908      -34.529788     -1.36
       3871       1935.5             0.03               296.85    0.032432      -34.830331      -34.797898      -34.529787     -1.36
       3872       1936.0             0.02               296.84    0.032432      -34.830321      -34.797889      -34.529787     -1.36
       3873       1936.5             0.02               297.09    0.032458      -34.830339      -34.797881      -34.529787     -1.36
       3874       1937.0             0.03               297.60    0.032514      -34.830388      -34.797874      -34.529787     -1.36
       3875       1937.5             0.03               298.36    0.032598      -34.830467      -34.797870      -34.529787     -1.36
       3876       1938.0             0.03               299.38    0.032709      -34.830577      -34.797868      -34.529787     -1.36
       3877       1938.5             0.03               300.61    0.032844      -34.830714      -34.797870      -34.529788     -1.36
       3878       1939.0             0.03               301.96    0.032991      -34.830868      -34.797877      -34.529789     -1.37
       3879       1939.5             0.03               303.26    0.033133      -34.831021      -34.797888      -34.529791     -1.37
       3880       1940.0             0.03               304.29    0.033245      -34.831147      -34.797901      -34.529792     -1.38
       3881       1940.5             0.04               304.88    0.033309      -34.831225      -34.797916      -34.529793     -1.38
       3882       1941.0             0.03               304.96    0.033318      -34.831247      -34.797929      -34.529792     -1.38
       3883       1941.5             0.03               304.64    0.033283      -34.831223      -34.797940      -34.529790     -1.37
       3884       1942.0             0.03               304.14    0.033229      -34.831179      -34.797950      -34.529788     -1.36
       3885       1942.5             0.03               303.73    0.033184      -34.831143      -34.797959      -34.529787     -1.36
       3886       1943.0             0.03               303.52    0.033161      -34.831131      -34.797969      -34.529788     -1.36
       3887       1943.5             0.03               303.50    0.033159      -34.831139      -34.797980      -34.529789     -1.37
       3888       1944.0             0.03               303.50    0.033158      -34.831150      -34.797992      -34.529790     -1.37
       3889       1944.5             0.03               303.31    0.033138      -34.831139      -34.798002      -34.529791     -1.38
       3890       1945.0             0.02               302.79    0.033081      -34.831091      -34.798010      -34.529791     -1.38
       3891       1945.5             0.03               301.91    0.032985      -34.831000      -34.798014      -34.529791     -1.37
       3892       1946.0             0.03               300.77    0.032861      -34.830876      -34.798015      -34.529789     -1.37
       3893       1946.5             0.02               299.57    0.032729      -34.830742      -34.798012      -34.529788     -1.36
       3894       1947.0             0.02               298.55    0.032618      -34.830625      -34.798006      -34.529786     -1.35
       3895       1947.5             0.03               297.97    0.032555      -34.830554      -34.797999      -34.529784     -1.34
       3896       1948.0             0.03               298.00    0.032558      -34.830551      -34.797993      -34.529784     -1.34
       3897       1948.5             0.03               298.65    0.032629      -34.830620      -34.797991      -34.529785     -1.35
       3898       1949.0             0.03               299.76    0.032751      -34.830743      -34.797992      -34.529787     -1.36
       3899       1949.5             0.02               301.00    0.032886      -34.830884      -34.797998      -34.529790     -1.37
       3900       1950.0             0.02               301.98    0.032993      -34.830999      -34.798006      -34.529792     -1.38
       3901       1950.5             0.02               302.44    0.033043      -34.831056      -34.798013      -34.529793     -1.38
       3902       1951.0             0.02               302.34    0.033032      -34.831050      -34.798018      -34.529791     -1.38
       3903       1951.5             0.02               301.91    0.032985      -34.831005      -34.798020      -34.529788     -1.36
       3904       1952.0             0.02               301.57    0.032948      -34.830970      -34.798022      -34.529785     -1.35
       3905       1952.5             0.02               301.71    0.032963      -34.830988      -34.798025      -34.529784     -1.34
       3906       1953.0             0.03               302.47    0.033047      -34.831080      -34.798033      -34.529785     -1.35
       3907       1953.5             0.03               303.71    0.033182      -34.831229      -34.798047      -34.529788     -1.36
       3908       1954.0             0.03               305.00    0.033323      -34.831387      -34.798064      -34.529792     -1.38
       3909       1954.5             0.03               305.87    0.033418      -34.831501      -34.798083      -34.529794     -1.39
       3910       1955.0             0.03               305.95    0.033426      -34.831527      -34.798101      -34.529795     -1.39
       3911       1955.5             0.02               305.14    0.033338      -34.831452      -34.798114      -34.529794     -1.39
       3912       1956.0             0.02               303.64    0.033175      -34.831296      -34.798121      -34.529791     -1.38
       3913       1956.5             0.03               301.85    0.032978      -34.831101      -34.798123      -34.529788     -1.36
       3914       1957.0             0.03               300.23    0.032802      -34.830922      -34.798121      -34.529785     -1.35
       3915       1957.5             0.03               299.21    0.032691      -34.830807      -34.798117      -34.529783     -1.34
       3916       1958.0             0.03               299.01    0.032668      -34.830782      -34.798114      -34.529783     -1.34
       3917       1958.5             0.02               299.55    0.032727      -34.830842      -34.798115      -34.529785     -1.35
       3918       1959.0             0.02               300.52    0.032833      -34.830953      -34.798120      -34.529789     -1.37
       3919       1959.5             0.03               301.44    0.032933      -34.831061      -34.798127      -34.529792     -1.38
       3920       1960.0             0.03               301.85    0.032978      -34.831113      -34.798135      -34.529794     -1.39
       3921       1960.5             0.03               301.52    0.032942      -34.831080      -34.798138      -34.529794     -1.39
       3922       1961.0             0.03               300.56    0.032837      -34.830974      -34.798137      -34.529790     -1.37
       3923       1961.5             0.03               299.41    0.032712      -34.830843      -34.798131      -34.529786     -1.35
       3924       1962.0             0.03               298.69    0.032634      -34.830757      -34.798123      -34.529782     -1.33
       3925       1962.5             0.03               298.91    0.032657      -34.830775      -34.798119      -34.529781     -1.33
       3926       1963.0             0.03               300.21    0.032800      -34.830921      -34.798121      -34.529782     -1.34
       3927       1963.5             0.02               302.34    0.033032      -34.831164      -34.798132      -34.529787     -1.36
       3928       1964.0             0.03               304.67    0.033287      -34.831437      -34.798150      -34.529792     -1.38
       3929       1964.5             0.02               306.52    0.033489      -34.831660      -34.798172      -34.529796     -1.40
       3930       1965.0             0.02               307.39    0.033583      -34.831777      -34.798194      -34.529797     -1.40
       3931       1965.5             0.03               307.16    0.033559      -34.831770      -34.798212      -34.529795     -1.39
       3932       1966.0             0.02               306.10    0.033443      -34.831668      -34.798225      -34.529791     -1.37
       3933       1966.5             0.02               304.74    0.033294      -34.831529      -34.798234      -34.529787     -1.36
       3934       1967.0             0.02               303.64    0.033175      -34.831416      -34.798241      -34.529784     -1.34
       3935       1967.5             0.03               303.23    0.033130      -34.831379      -34.798249      -34.529783     -1.34
       3936       1968.0             0.03               303.64    0.033174      -34.831435      -34.798261      -34.529784     -1.34
       3937       1968.5             0.02               304.64    0.033284      -34.831561      -34.798277      -34.529787     -1.36
       3938       1969.0             0.02               305.78    0.033408      -34.831706      -34.798298      -34.529791     -1.38
       3939       1969.5             0.02               306.49    0.033486      -34.831805      -34.798319      -34.529795     -1.39
       3940       1970.0             0.02               306.32    0.033466      -34.831805      -34.798338      -34.529796     -1.40
       3941       1970.5             0.02               305.11    0.033335      -34.831686      -34.798351      -34.529795     -1.39
       3942       1971.0             0.02               303.13    0.033118      -34.831474      -34.798356      -34.529791     -1.37
       3943       1971.5             0.02               300.95    0.032880      -34.831234      -34.798353      -34.529785     -1.35
       3944       1972.0             0.02               299.29    0.032699      -34.831046      -34.798347      -34.529781     -1.33
       3945       1972.5             0.02               298.72    0.032637      -34.830979      -34.798342      -34.529780     -1.32
       3946       1973.0             0.02               299.41    0.032712      -34.831054      -34.798342      -34.529782     -1.33
       3947       1973.5             0.02               301.05    0.032891      -34.831241      -34.798350      -34.529786     -1.35
       3948       1974.0             0.03               303.00    0.033104      -34.831467      -34.798363      -34.529791     -1.38
       3949       1974.5             0.02               304.56    0.033275      -34.831654      -34.798379      -34.529795     -1.39
       3950       1975.0             0.02               305.29    0.033355      -34.831749      -34.798394      -34.529795     -1.39
       3951       1975.5             0.02               305.15    0.033339      -34.831745      -34.798406      -34.529792     -1.38
       3952       1976.0             0.02               304.48    0.033266      -34.831681      -34.798415      -34.529788     -1.36
       3953       1976.5             0.02               303.84    0.033196      -34.831617      -34.798422      -34.529784     -1.34
       3954       1977.0             0.02               303.75    0.033187      -34.831616      -34.798430      -34.529782     -1.33
       3955       1977.5             0.02               304.53    0.033271      -34.831714      -34.798443      -34.529782     -1.33
       3956       1978.0             0.02               306.13    0.033446      -34.831908      -34.798462      -34.529784     -1.35
       3957       1978.5             0.02               308.22    0.033675      -34.832164      -34.798489      -34.529788     -1.36
       3958       1979.0             0.02               310.26    0.033897      -34.832419      -34.798522      -34.529792     -1.38
       3959       1979.5             0.02               311.68    0.034053      -34.832610      -34.798558      -34.529795     -1.40
       3960       1980.0             0.02               312.10    0.034098      -34.832691      -34.798592      -34.529796     -1.40
       3961       1980.5             0.02               311.42    0.034024      -34.832647      -34.798623      -34.529795     -1.39
       3962       1981.0             0.02               309.88    0.033856      -34.832503      -34.798647      -34.529791     -1.38
       3963       1981.5             0.02               307.99    0.033650      -34.832315      -34.798665      -34.529787     -1.36
       3964       1982.0             0.02               306.33    0.033468      -34.832148      -34.798680      -34.529784     -1.34
       3965       1982.5             0.02               305.33    0.033359      -34.832053      -34.798694      -34.529783     -1.34
       3966       1983.0             0.02               305.11    0.033335      -34.832045      -34.798710      -34.529785     -1.35
       3967       1983.5             0.02               305.43    0.033370      -34.832098      -34.798729      -34.529788     -1.36
       3968       1984.0             0.03               305.78    0.033408      -34.832156      -34.798749      -34.529792     -1.38
       3969       1984.5             0.03               305.66    0.033395      -34.832161      -34.798766      -34.529794     -1.39
       3970       1985.0             0.02               304.80    0.033301      -34.832080      -34.798779      -34.529794     -1.39
       3971       1985.5             0.02               303.29    0.033136      -34.831921      -34.798786      -34.529791     -1.37
       3972       1986.0             0.02               301.51    0.032942      -34.831728      -34.798786      -34.529787     -1.36
       3973       1986.5             0.02               300.01    0.032777      -34.831560      -34.798783      -34.529783     -1.34
       3974       1987.0             0.03               299.21    0.032691      -34.831469      -34.798779      -34.529782     -1.33
       3975       1987.5             0.02               299.34    0.032705      -34.831482      -34.798777      -34.529782     -1.33
       3976       1988.0             0.02               300.32    0.032811      -34.831592      -34.798780      -34.529784     -1.34
       3977       1988.5             0.03               301.82    0.032976      -34.831764      -34.798789      -34.529787     -1.36
       3978       1989.0             0.02               303.42    0.033150      -34.831952      -34.798801      -34.529790     -1.37
       3979       1989.5             0.02               304.71    0.033291      -34.832107      -34.798816      -34.529792     -1.38
       3980       1990.0             0.02               305.40    0.033366      -34.832198      -34.798832      -34.529793     -1.38
       3981       1990.5             0.03               305.42    0.033369      -34.832216      -34.798847      -34.529792     -1.38
       3982       1991.0             0.02               304.93    0.033315      -34.832173      -34.798858      -34.529790     -1.37
       3983       1991.5             0.02               304.20    0.033235      -34.832103      -34.798868      -34.529788     -1.36
       3984       1992.0             0.02               303.58    0.033168      -34.832043      -34.798876      -34.529786     -1.35
       3985       1992.5             0.02               303.32    0.033139      -34.832024      -34.798885      -34.529786     -1.35
       3986       1993.0             0.02               303.46    0.033154      -34.832050      -34.798896      -34.529787     -1.36
       3987       1993.5             0.02               303.81    0.033193      -34.832102      -34.798909      -34.529789     -1.37
       3988       1994.0             0.02               304.03    0.033216      -34.832139      -34.798923      -34.529792     -1.38
       3989       1994.5             0.02               303.73    0.033184      -34.832119      -34.798935      -34.529794     -1.39
       3990       1995.0             0.02               302.76    0.033077      -34.832020      -34.798942      -34.529793     -1.38
       3991       1995.5             0.02               301.17    0.032904      -34.831847      -34.798943      -34.529791     -1.37
       3992       1996.0             0.02               299.27    0.032697      -34.831635      -34.798938      -34.529788     -1.36
       3993       1996.5             0.02               297.47    0.032501      -34.831429      -34.798928      -34.529785     -1.35
       3994       1997.0             0.02               296.12    0.032353      -34.831268      -34.798916      -34.529784     -1.34
       3995       1997.5             0.02               295.41    0.032275      -34.831178      -34.798903      -34.529783     -1.34
       3996       1998.0             0.02               295.37    0.032271      -34.831162      -34.798891      -34.529784     -1.34
       3997       1998.5             0.02               295.90    0.032329      -34.831209      -34.798880      -34.529786     -1.35
       3998       1999.0             0.03               296.79    0.032426      -34.831299      -34.798873      -34.529787     -1.36
       3999       1999.5             0.02               297.82    0.032538      -34.831407      -34.798868      -34.529789     -1.36
       4000       2000.0             0.02               298.78    0.032643      -34.831509      -34.798866      -34.529790     -1.37
------------|------------|------|---------|---------|----------|-----------|---------------|---------------|---------------|-----------
       Step |  Sim. Time | Iter |  t_Ener |  t_Grad |     Temp |     E_Kin |         E_Pot |         E_Tot |      Cons.Qty | E.Drift
            |       [fs] |      |     [s] |     [s] |      [K] | [Hartree] |     [Hartree] |     [Hartree] |     [Hartree] |     [K]


Finished MD run of 4000 steps.


The average temperature during this run was 324.00659 K.


Smallest interatomic distance from active region: 0.947051 Angstrom (atoms 7 - 8).


>>> Invariance Statistics >>>

    The maximal deviation of the gradient from translational invariance was 3.531e-11 kJ mol^-1 Angstrom^-1.
    This would introduce a center of mass drift of 0.000 Kelvin within 1.0 ps.

    The maximal deviation of the gradient from rotational invariance (torque) was 1.037e-01 kJ mol^-1 rad^-1.
    This would introduce an overall rotation of 0.000 Kelvin within 1.0 ps.

<<< Invariance Statistics <<<


### System Geometry ###

  * Region "All" = "Active" = "QM":
      Bounding box: from (  -51.890 |   -3.017 |   -4.029 )
                      to (    6.476 |    6.753 |    8.856 ) Angstrom
      System extent:     (   58.365 |    9.770 |   12.885 ) Angstrom
      Center of mass:    (   -2.497 |    0.264 |   -0.279 ) Angstrom

      Angular momentum:  (   0.00000215 |  -0.00000663 |   0.00000383 ) a.m.u. Angstrom^2 fs^-1
      Angular velocity:  (   0.00000001 |  -0.00000000 |  -0.00000000 ) fs^-1
      Moment of inertia: (      2468.37 |      5522.85 |      8638.78 )
                         (      5522.85 |     50133.31 |      -988.59 ) a.m.u. Angstrom^2
                         (      8638.78 |      -988.59 |     49217.69 )
      Singular values:   (       291.52 |     50762.76 |     50765.10 ) a.m.u. Angstrom^2



Thermostat Summary:
  (*) Region "All": Removed 706.46 kJ mol^-1 of energy from the system (equivalent to 2462.83 K).


>>> Timing data >>>
    MD loop was running for 95.315 seconds (1m 35.315s)
    Performance: 0.024 seconds/step, 75539.355 fs/hour.
    Time spent within the MD module (overhead): 0.818 seconds (0.8581 % of total time).
<<< Timing data <<<


Finished MD loop.

-------------------------------------------------------------------------------------------

#######################################################################
########        Finished Executing Input Script (SAN-VM)       ########
#######################################################################

    Total execution time: 95.315 seconds (1m 35.315s)

            24 instructions executed
             6 function calls


Timings for individual modules during the MD run:

XTB module                        ...       93.480 sec (=   1.558 min)  98.5 %
ORCA initialization               ...        0.362 sec (=   0.006 min)   0.4 %
Self time inside of MD module     ...        1.097 sec (=   0.018 min)   1.2 %
------------------------------------------------------------------------------
Sum of individual times           ...       94.939 sec (=   1.582 min) 100.0 %

Total wall time of MD module      ...       95.677 sec (=   1.595 min)
             --> "dark time"      ...        0.738 sec (=   0.012 min)   0.8 %

( The "dark time" is spent in the ORCA-internal routines for energy and gradient calculation,
  but not inside of the sub-programs which do so. It contains operating system overhead for
  spawning new processes in each MD step and some file I/O time. )



    ###########################################################
    ####     ORCA ab initio Molecular Dynamics leaving     ####
    ####     Scriptable Nuclear Dynamics (SANdy) + ORCA    ####
    ####           (c) Martin Brehm, 2016 - 2025           ####
    ####           https://sanscript.org/orcamd            ####
    ###########################################################


-------------------------------------------------------------------------------------------


--------------------------------
SUGGESTED CITATIONS FOR THIS RUN
--------------------------------

Below you find a list of papers that are relevant to this ORCA run
We neither can nor want to force you to cite these papers, but we appreciate if you do
You receive ORCA, which is the product of decades of hard work by many enthusiastic individuals, for free
The only thing we kindly ask in return is that you cite our papers,
We deeply appreciate it, if you show your appreciation for ORCA by not just citing the generic ORCA reference.

Please note that relegating all ORCA citations to the supporting information does *not* help us.
SI sections are not indexed - citations you put there will not count into any citation statistics
But we need these citations in order to attract the funding resources that allow us to do what we are doing

Therefore, if you are a happy ORCA user, please consider citing a few of the papers listed below in the main body of your paper

In addition to the list printed below, the program has created the file al_agua_nh3_dt05.bibtex that contains the list in bibtex format
You can import this file easily into all common literature databanks and citation aid programs

It goes without saying that in many instances, there are alternative algorithms to achieve similar
results as the ones you have gotten from ORCA. It is, of course, also the case that in some instances
ORCA just re-implements algorithms worked out by others. We are fully aware of that and we are also
fully appreciative of our colleagues work. Hence this citation list should not be read as indicating
that the listed papers, which are focused on our own work, are the only ones worth citing. It simply
meant to make it easier for users to cite ORCA specific papers. It is not a substitute for doing your
own literature research and citing the relevant literature in a scientifically appropriate manner.

List of essential papers. We consider these as the minimum necessary citations

  1. Bannwarth, C.; Ehlert, S.; Grimme, S.
     GFN2-xTB—An Accurate and Broadly Parametrized Self-Consistent Tight-Binding Quantum Chemical Method with Multipole Electrostatics and Density-Dependent Dispersion Contributions
     J. Chem. Theory Comput. 2019 15(3), 1652-1671
     doi.org/10.1021/acs.jctc.8b01176
  2. Neese, F.
     Software update: the ORCA program system, version 6.0
     WIRES Comput. Molec. Sci. 2025 15(1), e70019
     doi.org/10.1002/wcms.70019

List of papers to cite with high priority. The work reported in these papers was absolutely
necessary for this run to complete.
Our perspective: the developers of density functionals and basis sets usually get cited in chemistry papers
Good! But without the algorithms to do something with them, the functionals or basis sets would not do anything.
Hence, in our opinion, the algorithm design and method developments papers are equally worthy of getting cited

  1. Bannwarth, C.; Caldeweyher, E.; Ehlert, S.; Hansen, A.; Pracht, P.; Seibert, J.; Spicher, S.; Grimme, S.
     Extended tight-binding quantum chemistry methods
     WIRES Comput. Molec. Sci. 2020 11(2), e1493
     doi.org/10.1002/wcms.1493

List of suggested additional citations. These are papers that are important in the 'surrounding' of 
of this run, or papers that preceded the highly important papers. If you like your results we are grateful for a citation.

  1. Neese, F.
     The ORCA program system
     WIRES Comput. Molec. Sci. 2012 2(1), 73-78
     doi.org/10.1002/wcms.81
  2. Neese, F.
     Software update: the ORCA program system, version 4.0
     WIRES Comput. Molec. Sci. 2018 8(1), 1-6
     doi.org/10.1002/wcms.1327
  3. Neese, F.; Wennmohs, F.; Becker, U.; Riplinger, C.
     The ORCA quantum chemistry program package
     J. Chem. Phys. 2020 152(22), 224108
     doi.org/10.1063/5.0004608
  4. Neese, F.
     Software update: The ORCA program system—Version 5.0
     WIRES Comput. Molec. Sci. 2022 12(1), e1606
     doi.org/10.1002/wcms.1606

List of optional additional citations

  1. Neese, F.
     Approximate second-order SCF convergence for spin unrestricted wavefunctions
     Chem. Phys. Lett. 2000 325(1-3), 93-98
     doi.org/10.1016/s0009-2614(00)00662-x

Timings for individual modules:

Sum of individual times          ...       95.811 sec (=   1.597 min)
Molecular Dynamics run           ...       95.811 sec (=   1.597 min) 100.0 %
                             ****ORCA TERMINATED NORMALLY****
TOTAL RUN TIME: 0 days 0 hours 1 minutes 36 seconds 342 msec
