
                                 *****************
                                 * O   R   C   A *
                                 *****************

                                            #,                                       
                                            ###                                      
                                            ####                                     
                                            #####                                    
                                            ######                                   
                                           ########,                                 
                                     ,,################,,,,,                         
                               ,,#################################,,                 
                          ,,##########################################,,             
                       ,#########################################, ''#####,          
                    ,#############################################,,   '####,        
                  ,##################################################,,,,####,       
                ,###########''''           ''''###############################       
              ,#####''   ,,,,##########,,,,          '''####'''          '####       
            ,##' ,,,,###########################,,,                        '##       
           ' ,,###''''                  '''############,,,                           
         ,,##''                                '''############,,,,        ,,,,,,###''
      ,#''                                            '''#######################'''  
     '                                                          ''''####''''         
             ,#######,   #######,   ,#######,      ##                                
            ,#'     '#,  ##    ##  ,#'     '#,    #''#        ,####,    ,#,          
            ##       ##  ##   ,#'  ##            #'  '#       #'       ,# #          
            ##       ##  #######   ##           ,######,      #####,      #          
            '#,     ,#'  ##    ##  '#,     ,#' ,#      #,     #,   #      #          
             '#######'   ##     ##  '#######'  #'      '#     '####' #    #          



                #########################################################
                #                        -***-                          #
                #          Department of theory and spectroscopy        #
                #                                                       #
                #                      Frank Neese                      #
                #                                                       #
                #     Directorship, Architecture, Infrastructure        #
                #                    SHARK, DRIVERS                     #
                #        Core code/Algorithms in most modules           #
                #                                                       #
                #        Max Planck Institute fuer Kohlenforschung      #
                #                Kaiser Wilhelm Platz 1                 #
                #                 D-45470 Muelheim/Ruhr                 #
                #                      Germany                          #
                #                                                       #
                #                  All rights reserved                  #
                #                        -***-                          #
                #########################################################


                         Program Version 6.1.1  -  RELEASE   -
                                (GIT: $487d211c$)
                          ($2025-11-21 10:33:24 +0100$)


 With contributions from (in alphabetic order):
[Max-Planck-Institut fuer Kohlenforschung]                               
  Daniel Aravena         : Magnetic Suceptibility                        
  Michael Atanasov       : Ab Initio Ligand Field Theory (pilot matlab implementation)
  Alexander A. Auer      : GIAO ZORA, VPT2 properties, NMR spectrum      
  Ute Becker             : All parallelization in ORCA, NUMFREQ, NUMCALC 
  Giovanni Bistoni       : ED, misc. LED, open-shell LED, HFLD           
  Dmytro Bykov           : pre 5.0 version of the SCF Hessian            
  Marcos Casanova-Páez   : Triplet and SCS-CIS(D). UHF-(DLPNO)-IP/EA/STEOM-CCSD. UHF-CVS-IP/STEOM-CCSD   
  Vijay G. Chilkuri      : MRCI spin determinant printing, contributions to CSF-ICE 
  Pauline Colinet        : FMM embedding                                 
  Dipayan Datta          : RHF DLPNO-CCSD density                        
  Achintya Kumar Dutta   : EOM-CC, STEOM-CC                              
  Nicolas Foglia         : Exact transition moments, OPA infrastructure, MCD improvements    
  Dmitry Ganyushin       : Spin-Orbit,Spin-Spin,Magnetic field MRCI      
  Miquel Garcia-Rates    : C-PCM and meta-GGA Hessian, CCSD/C-PCM, Gaussian charge scheme 
  Tiago L. C. Gouveia    : GS-ROHF, GS-ROCIS                             
  Yang Guo               : DLPNO-NEVPT2, F12-NEVPT2, CIM, IAO-localization        
  Andreas Hansen         : Spin unrestricted coupled pair/coupled cluster methods 
  Ingolf Harden          : AUTO-CI MPn and infrastructure                
  Benjamin Helmich-Paris : MC-RPA, TRAH-(SCF,CASSCF), AVAS, COSX integrals, SCF dyn. polar., MC-PDFT, srDFT 
  Lee Huntington         : MR-EOM, pCC                                   
  Robert Izsak           : Overlap fitted RIJCOSX, COSX-SCS-MP3, EOM     
  Riya Kayal             : Wick's Theorem for AUTO-CI, AUTO-CI UHF-CCSDT 
  Emily Kempfer          : AUTO-CI RHF CISDT and CCSDT, approximate NEVPT4
  Christian Kollmar      : KDIIS, OOCD, Brueckner-CCSD(T), CCSD density, CASPT2, CASPT2-K, improved NEVPT2 
  Axel Koslowski         : Symmetry handling                             
  Simone Kossmann        : meta-GGA functionals, TD-DFT gradient, OOMP2, (MP2 Hessian; deprecated post 5.0) 
  Lucas Lang             : DCDCAS, Hyperfine gauge corrections, ICE-SOC+SSC
  Marvin Lechner         : AUTO-CI (C++ implementation), FIC-MRCC        
  Spencer Leger          : CASSCF response                               
  Dagmar Lenk            : GEPOL surface, SMD, ORCA-2-JSON               
  Dimitrios Liakos       : Extrapolation schemes; Compound Job, Property file
  Dimitrios Manganas     : Further ROCIS development; embedding schemes. LFT, Crystal Embedding 
  Dimitrios Pantazis     : SARC Basis sets                               
  Anastasios Papadopoulos: AUTO-CI, single reference methods and gradients 
  Taras Petrenko         : pre 6.0 DFT Hessian and TD-DFT gradient,  ECA, NRVS 
  Petra Pikulova         : Analytic Raman intensities                    
  Peter Pinski           : DLPNO-MP2, DLPNO-MP2 Gradient                 
  Shashank Vittal Rao    : ES-AILFT, MagRelax                            
  Christoph Reimann      : Effective Core Potentials                     
  Marius Retegan         : Local ZFS, SOC                                
  Christoph Riplinger    : Optimizer, TS searches, QM/MM, DLPNO-CCSD(T), (RO)-DLPNO pert. Triples 
  Michael Roemelt        : Original ROCIS implementation, recursive CI coupling coefficients
  Masaaki Saitow         : Open-shell DLPNO-CCSD energy and density      
  Barbara Sandhoefer     : DKH picture change effects                    
  Yorick L. A. Schmerwitz: GMF and freeze-and-release deltaSCF, NEB S-IDPP initial path                    
  Kantharuban Sivalingam : CASSCF convergence/infrastructure, NEVPT2, NEVPT3, NEVPT4(SD), FIC-MRCI and CEPA variants
  Bernardo de Souza      : ESD, SOC TD-DFT                               
  Georgi L. Stoychev     : AutoAux, RI-MP2 NMR, DLPNO-MP2 response, X2C  
  Van Anh Tran           : RI-MP2 g-tensors                              
  Willem Van den Heuvel  : Paramagnetic NMR                              
  Zikuan Wang            : NOTCH, Electric field optimization            
  Frank Wennmohs         : Technical directorship and infrastructure     
  Hang Xu                : AUTO-CI-Response properties                   
                                                                         
[FACCTs GmbH]                                                            
  Markus Bursch, Nicolas Foglia, Miquel Garcia-Rates, Ingolf Harden, Hagen Neugebauer, Anastasios Papadopoulos, 
  Christoph Riplinger, Bernardo de Souza, Georgi L. Stoychev                                                    
                                                                 
  APM, various basis sets, CI-OPT, improved COSX, DLPNO-Multilevel,           
  DOCKER, DRACO, updates on ESD, Fragmentator, GOAT, IRC, LR-CPCM, L-BFGS, MBIS, meta-GGA TD-DFT gradient, ML-optimized integration grids, 
  MM, NACMEs, nearIR, NEB, NEB-TS, NL-DFT gradient (VV10), 2- and 3-layer-ONIOM, interface openCOSMO-RS, QMMM,   
  Crystal-QMMM, RESP, rigid body optimization, SF, symmetry and pop. for TD-DFT, various functionals, SOLVATOR                                   
                                                                         
[Other institutions]                                                     
  V. Asgeirsson          : NEB                                           
  Christoph Bannwarth    : sTDA-DFT, sTD-DFT, PBEh-3c, B97-3c, D3        
  Giovanni Bistoni       : ETS/NOCV, ADLD/ADEX, COVALED                  
  Martin Brehm           : Molecular dynamics                            
  Ronald Cardenas        : ETS/NOCV                                      
  Martina Colucci        : COVALED                                       
  Sebastian Ehlert       : rSCAN, r2SCAN, r2SCAN-3c, D4, dhf basis sets  
  Marvin Friede          : D4 for Fr, Ra, Ac-Lr                          
  Lars Goerigk           : TD-DFT with DH, B97 family of functionals     
  Stefan Grimme          : VdW corrections, initial TS optimization, DFT functionals, gCP, sTDA/sTD-DF 
  Waldemar Hujo          : DFT-NL                                        
  H. Jonsson             : NEB                                           
  Holger Kruse           : gCP                                           
  Marcel Mueller         : wB97X-3c, vDZP basis set                      
  Hagen Neugebauer       : wr2SCAN, Native XTB                           
  Gianluca Regni         : ADLD/ADEX                                     
  Tobias Risthaus        : pre 6.0 range-separated hybrid DFT and stability analysis
  Lukas Wittmann         : regularized MP2, r2SCAN double-hybrids, wr2SCAN        
                                                                         
We gratefully acknowledge several colleagues who have allowed us to      
interface, adapt or use parts of their codes:                            
  Ed Valeev, F. Pavosevic, A. Kumar             : LibInt (2-el integral package), F12 methods 
  Garnet Chan, S. Sharma, J. Yang, R. Olivares  : DMRG                   
  Ulf Ekstrom                                   : XCFun DFT Library      
  Mihaly Kallay                                 : mrcc  (arbitrary order and MRCC methods)
  Frank Weinhold                                : gennbo (NPA and NBO analysis)           
  Simon Mueller                                 : openCOSMO-RS                            
  Christopher J. Cramer and Donald G. Truhlar   : smd solvation model                     
  S Lehtola, MJT Oliveira, MAL Marques          : LibXC Library                           
  Liviu Ungur et al                             : ANISO software                          


 Your calculation uses the libint2 library for the computation of 2-el integrals
 For citations please refer to: http://libint.valeyev.net

 Your ORCA version has been built with support for libXC version: 7.0.0
 For citations please refer to: https://libxc.gitlab.io

 This ORCA versions uses:
   CBLAS   interface :  Fast vector & matrix operations
   LAPACKE interface :  Fast linear algebra routines
   SCALAPACK package :  Parallel linear algebra routines
   Shared memory     :  Shared parallel matrices
   BLAS/LAPACK       :  OpenBLAS 0.3.29  USE64BITINT DYNAMIC_ARCH NO_AFFINITY Haswell SINGLE_THREADED
        Core in use  :  Haswell
   Copyright (c) 2011-2014, The OpenBLAS Project


  ***********************************
  * Starting time: Tue Sep 29 17:00:43 2026
  * Host name:     NotebookAW
  * Process ID:    38499
  * Working dir.:  /home/henrique/aimd-workshop/exercicios-pal8-20260928/etanol_instavel_quimica_20260929
  ***********************************

NOTE: MaxCore=256 MB was set to SCF,MP2,MDCI,CIPSI,MRCI,RASCI and CIS
      => If you want to overwrite this, your respective input block should be placed after the MaxCore statement


***************************************
The coordinates will be read from file: etanol.xyz
***************************************


Your calculation utilizes the semiempirical GFN2-xTB method
Please cite in your paper:
Bannwarth, C.; Ehlert S.; Grimme, S. J. Chem. Theory Comput. 2019, 15, 1652.
   

================================================================================

================================================================================
                                        WARNINGS
                       Please study these warnings very carefully!
================================================================================


WARNING: Gradients are needed
  ===> : At least TightSCF should be used for SCF convergence

WARNING: Found dipole moment calculation with XTB calculation
  ===> : Switching off dipole moment calculation


================================================================================
                                       INPUT FILE
================================================================================
NAME = etanol_instavel.inp
|  1> # Exemplo didatico; oito processos solicitados.
|  2> ! MD XTB2 PAL8
|  3> %maxcore 256
|  4> 
|  5> %md
|  6>   Randomize 42
|  7>   Initvel 300_K
|  8>   Dump Position Stride 1 Filename "etanol_instavel-traj.xyz"
|  9>   # Passo propositadamente excessivo; nao usar em producao.
| 10>   Timestep 2.5_fs
| 11>   Thermostat None
| 12>   Run 200
| 13> end
| 14> * xyzfile 0 1 etanol.xyz
| 15> 
| 16> 
| 17>                          ****END OF INPUT****
================================================================================

-------------------------------------------------------------------------------------------

MD module early startup:
  Installed signal handlers.
  Extracted executable name.
  Initialized library credit list.
  Parsed command line without errors.
  Initialized console color.
Done.

Will write log file to "etanol_instavel.md.log".

Command line:  /home/henrique/bin/orca611/orca_md -orca etanol_instavel

-------------------------------------------------------------------------------------------


     _____    ___    _   _       _                  ______ ______  _____   ___  
    /  ___|  / _ \  | \ | |     | |           _    /  __  \| ___ \/  __ \ / _ \ 
    \ `--.  / /_\ \ |  \| |   __| | _   _   _| |_  | |  | || |_/ /| /  \// /_\ \
     `--. \ |  _  | | . ` |  / _` || | | | |_   _| | |  | ||    / | |    |  _  |
    /\__/ / | | | | | |\  | | (_| || |_| |   |_|   | \__/ || |\ \ | \__/\| | | |
    \____/  \_| |_/ \_| \_/  \__,_| \__, |          \____/ \_| \_| \____/\_| |_/
                                     __/ |                                      
                                    |___/                                       


    ####################################################################
    ########     Scriptable Nuclear Dynamics (SANdy) + ORCA     ########
    ########           (c) Martin Brehm, 2016 - 2025            ########
    ########           Paderborn University, Germany            ########
    ########           https://sanscript.org/orcamd             ########
    ####################################################################


  * Compiled as ORCA module. Called from ORCA.
  * ORCA base name: "etanol_instavel"
  * Source code version: Jun 07 2025, compiled at Nov 24 2025 07:23:22.
  * Enabled features: SAN_MD, SAN_INTERPRETER
  * Libraries: KISS_FFT, LBFGSBC
  * Executable name: "/home/henrique/bin/orca611/orca_md"
  * Messages are redirected, Errors are redirected, Output is redirected, Input is redirected
  * Running on NotebookAW at Tue Sep 29 17:00:44 2026 (PID 38540)
  * Running in /home/henrique/aimd-workshop/exercicios-pal8-20260928/etanol_instavel_quimica_20260929

    -----------------------------------------------

    Technical information:

  * Compiler:      LLVM, CLANG 20.1.6, "Clang 20.1.6 (/home/frankw/CompEnv/src/llvm2016/llvm-project/clang 47addd4540b4c393e478ba92bea2589e330c57fb)", Linux, __cplusplus=201103L
  * Compile host:  x86_64, Little Endian, char=8bits, int=4b, long=8b, ll=8b, addr=8b, 0x01020304=4,3,2,1.
  * Class sizes:   InputElem=248, ValuePair=112, Type=96, Value=8, VMToken=8, VMInst=8
  * Compile flags: MMX, SSE, SSE2, SSE3, SSSE3, SSE4.1, SSE4.2, POPCNT, FMA3, AVX, AVX2
  * Local machine: Intel(R) Core(TM) Ultra 9 185H (GenuineIntel), Family 6, Model 170, Stepping 4
                   1 CPU, 11 cores, 22 threads,  Uptime 17m 48s
                   MMX, SSE, SSE2, SSE3, SSSE3, SSE4.1, SSE4.2, POPCNT, AES, FMA3, AVX, AVX2, SHA
                   Caches: 11x L1d (528 KiB), 11x L1i (704 KiB), 11x L2 (22 MiB), 1x L3 (24 MiB)
  * Op. System:    Ubuntu 24.04.4 LTS, Linux version 6.18.33.2-microsoft-standard-WSL2 
  * Phys. Memory:  15.38 GiB total,  10.77 GiB free
  * Stack size:    8.00 MiB


The following libraries are included:

  * KISS FFT,   Version 131.1.0 (02/2021), License: BSD 3-clause
      (c) 2003-2010 Mark Borgerding, see https://github.com/mborgerding/kissfft

  * L-BFGS-B-C, Version 3.0 (04/2011),     License: BSD 3-clause
      (c) Stephen Becker, see https://github.com/stephenbeckr/L-BFGS-B-C

  * MT19937 Pseudo Random Number Gen.,     License: Custom (permissive)
      (c) 1997-2005 Makoto Matsumoto, Takuji Nishimura, Mutsuo Saito, see https://github.com/clibs/mt19937ar


Initializing SAN engine...
  24 physical quantities and 49 units added.
  Initialized SAN language:
    97 operators, 57 keywords, 4 namespaces, 35 types, 183 flags
Done.


>>> Reading Input File >>>

Reading input file "etanol_instavel.mdinput" ...
  206 bytes read.
  8 lines.
Tokenizing input...
Found 18 tokens in file.
  ( 12 identifiers,  5 numeric literals,  1 string literals,  
     1 comments )

Warning: Line endings are non-uniform: 1 x \n, 7 x \r\n

<<< Finished Reading Input File (took 0.000 seconds) <<<


Using the following settings:
  Interpret:              true
  Execution:              SAN-VM
  Parser verbose level:   1
  Execute verbose level:  2
  Syntax highlighting:    0
  Static vars:            false
  Dynamic types:          true
  Max. recursion depth:   200
  Max. nesting depth:     1000
  Max. argument count:    100
  Only parse:             false


>>> Parsing Input Script >>>

Handled 2 underscore identifiers.
Handling module imports...
  Importing module "Math" to global namespace.
  Importing module "MD" to global namespace.
Handled 2 module imports.
Assigned 1 types.
Parsed 1 types.
Handled 6 variable occurrences.
Assigned 7 identifiers.
Handling functions,      iteration  1...
                         iteration  2...
                         iteration  3...
Handling "FOR" loops...
Handling AutoDecl,       iteration  1...
No auto declarations.
Assigned 2 flags, re-doing function handling...
Handling functions ( 2), iteration  1...
Handling "FOR" loops...
Handling AutoDecl,       iteration  1...
No auto declarations.
Handling functions, final pass...
  Moving "Void" argument 2 ("Dump") of function "Initvel" up 1 levels to "ROOT".
Function handling done (2 macro-iterations, 0.002 seconds).
Handling keywords,       iteration  1...
Prepared 6 argument lists.
Assigned 10 read-only flags.
Assigned 18 simple VP flags.
Assigned 17 tree IDs.

<<< Finished Parsing Input Script (took 0.004 seconds) <<<


SAN-VM: Compiling...
  Optimization level: Not specified. Using default ("-O2").
Done (took 0.000 seconds).


  Part              # Tokens    # Registers    # Shortcuts    # Optimizations
  ---------------------------------------------------------------------------
  Main Program            48              0              0                  0


-------------------------------------------------------------------------------------------

>>> Initializing MD engine with interface "ORCA" >>>



>>>>>>>>>>>>>>>>>>>>>>>>>>>>>>>>>>>>>>>>>>>>>>>>>>>>
>>>   Output of System Information (from ORCA)   >>>
>>>>>>>>>>>>>>>>>>>>>>>>>>>>>>>>>>>>>>>>>>>>>>>>>>>>

---------------------------------
CARTESIAN COORDINATES (ANGSTROEM)
---------------------------------
  C     -0.901441    0.176251   -0.032972
  C      0.469361   -0.492090   -0.045964
  O      1.462563    0.288439    0.577170
  H     -0.881485    1.099907   -0.610065
  H     -1.643612   -0.487893   -0.466928
  H     -1.192334    0.411110    0.988100
  H      0.760689   -0.723180   -1.081823
  H      0.440816   -1.426189    0.519536
  H      1.485442    1.153645    0.152945

----------------------------
CARTESIAN COORDINATES (A.U.)
----------------------------
  NO LB      ZA    FRAG     MASS         X           Y           Z
   0 C     6.0000    0    12.011   -1.703477    0.333067   -0.062307
   1 C     6.0000    0    12.011    0.886964   -0.929916   -0.086859
   2 O     8.0000    0    15.999    2.763843    0.545071    1.090694
   3 H     1.0000    0     1.008   -1.665765    2.078522   -1.152856
   4 H     1.0000    0     1.008   -3.105976   -0.921985   -0.882366
   5 H     1.0000    0     1.008   -2.253184    0.776885    1.867239
   6 H     1.0000    0     1.008    1.437494   -1.366612   -2.044349
   7 H     1.0000    0     1.008    0.833022   -2.695106    0.981781
   8 H     1.0000    0     1.008    2.807078    2.180073    0.289024

Doing XTB calculation. Basis set is not printed.

############################################
   Total Atom Count:               9
   Total System Mass:         46.069 a.m.u.
   Total Basis Dimension:          0
   Total Electron Number:          0
   Total Charge:                   0
   Total Multiplicity:             1
  ------------------------------------------
   ReducePrint:                 true
   Print Mulliken Pop:             1
   Print Loewdin Pop:              1
   Print Mayer Pop:                1
   Print Orbital Energies:         1
############################################

<<<<<<<<<<<<<<<<<<<<<<<<<<<<<<<<<<<<<<<<<<<<<<<<<<<<
<<<          End of System Information           <<<
<<<<<<<<<<<<<<<<<<<<<<<<<<<<<<<<<<<<<<<<<<<<<<<<<<<<


Initializing regions...

Defined regions:
         All:     9 atoms,     46.069 a.m.u.
          QM:   All
      Active:   All



### System Geometry ###

  * Region "All" = "Active" = "QM":
      Bounding box: from (   -1.644 |   -1.426 |   -1.082 )
                      to (    1.485 |    1.154 |    0.988 ) Angstrom
      System extent:     (    3.129 |    2.580 |    2.070 ) Angstrom
      Center of mass:    (    0.373 |    0.018 |    0.169 ) Angstrom
      Total mass:            46.069 a.m.u.

      Moment of inertia: (        17.25 |        -1.63 |       -10.46 )
                         (        -1.63 |        55.28 |        -2.90 ) a.m.u. Angstrom^2
                         (       -10.46 |        -2.90 |        58.32 )
      Singular values:   (        14.62 |        61.77 |        54.47 ) a.m.u. Angstrom^2



Smallest interatomic distance from active region: 0.963884 Angstrom (atoms 2 - 8).


<<< MD engine initialization done (took 0.481 seconds) <<<


###############################################################
########        Executing Input Script (SAN-VM)        ########
###############################################################

Execution verbose level is 2.

-------------------------------------------------------------------------------------------



>>>>>> Randomize( 42 )

Initialized random number generator seed to 42.


>>>>>> Initvel( 300_K )

Old temperature of the total system is     0.000 K.

Initializing atom velocities for region "all" to 300.000 K:
  Creating Maxwell-Boltzmann distribution...
  Temperature after random initialization is 334.750 K.
  Rescaling velocities to match desired initial temperature (factor 0.946673)...
  Removing initial center of mass movement...
  Temperature after center of mass movement removal is 292.200 K.
  Removing initial angular velocity...
    Angular momentum before:  (   0.02901431 |   0.12468310 |  -0.02551976 ) a.m.u. Angstrom^2 fs^-1
    Angular velocity before:  (   0.00191220 |   0.00231286 |   0.00002058 ) fs^-1
    Angular momentum after:   (   0.00000000 |   0.00000000 |   0.00000000 ) a.m.u. Angstrom^2 fs^-1
    Angular velocity after:   (   0.00000000 |   0.00000000 |   0.00000000 ) fs^-1
  Temperature after angular velocity removal is 276.906 K.
  Rescaling velocities to match desired initial temperature (factor 1.040864)...
Done.

New temperature of the total system is   300.000 K.


>>>>>> Dump( Position, Stride, 1, Filename, "etanol_instavel-traj.xyz" )

Modified writing position trajectory for region "all": Format XYZ, stride 1, filename "etanol_instavel-traj.xyz", append.


>>>>>> Timestep( 2.5_fs )

Setting integration time step to 2.50 fs.

The lightest element in the active region has an atomic mass of 1.008 a.m.u.
Recommending time step not larger than 0.50 .. 1.00 fs.

Warning: This time step is probably too large (unless you have constraints on bonds or angles).


>>>>>> Thermostat( None )



>>>>>> Run( 200 )


***************************************************
****    Starting MD loop for      200 steps    ****
***************************************************


Defined regions:
         All:     9 atoms,     46.069 a.m.u.
          QM:   All
      Active:   All


Dump: Will write Position data of region "All" in XYZ format with stride 1 to "etanol_instavel-traj.xyz" (append).

Hint: To compute properties (dipole, etc.) in each step, specify "dump properties" before run.

Will write restart file to "etanol_instavel.mdrestart" after each step.
Will write energy statistics to "etanol_instavel-md-ener.csv" after each step.

The system contains 27 active degrees of freedom (9 active atoms * 3).

Smallest interatomic distance from active region: 0.963884 Angstrom (atoms 2 - 8).



       Step |  Sim. Time | Iter |  t_Ener |  t_Grad |     Temp |     E_Kin |         E_Pot |         E_Tot |      Cons.Qty | E.Drift
            |       [fs] |      |     [s] |     [s] |      [K] | [Hartree] |     [Hartree] |     [Hartree] |     [Hartree] |     [K]
------------|------------|------|---------|---------|----------|-----------|---------------|---------------|---------------|-----------
          0          0.0             0.06               300.00    0.012826      -11.394339      -11.381514                          
          1          2.5             0.03               149.32    0.006384      -11.380969      -11.374586      -11.374586      0.00
          2          5.0             0.04               196.74    0.008411      -11.384810      -11.376399      -11.376399    -21.21
          3          7.5             0.04                53.53    0.002288      -11.376378      -11.374090      -11.374090      5.80
          4         10.0             0.06               213.54    0.009129      -11.384275      -11.375146      -11.375146     -6.55
          5         12.5             0.05               137.80    0.005891      -11.377436      -11.371545      -11.371545     35.56
          6         15.0             0.05               272.35    0.011644      -11.389305      -11.377661      -11.377661    -35.97
          7         17.5             0.05               123.27    0.005270      -11.376966      -11.371696      -11.371696     33.79
          8         20.0             0.04               213.40    0.009123      -11.382626      -11.373503      -11.373503     12.66
          9         22.5             0.04               122.94    0.005256      -11.377710      -11.372454      -11.372454     24.93
         10         25.0             0.05               127.45    0.005449      -11.378132      -11.372683      -11.372683     22.25
         11         27.5             0.04               174.06    0.007442      -11.373213      -11.365771      -11.365771    103.09
         12         30.0             0.03               240.87    0.010298      -11.377609      -11.367312      -11.367312     85.07
         13         32.5             0.05               208.59    0.008918      -11.382061      -11.373143      -11.373143     16.87
         14         35.0             0.05               194.09    0.008298      -11.385911      -11.377613      -11.377613    -35.40
         15         37.5             0.05               131.75    0.005633      -11.380561      -11.374928      -11.374928     -4.00
         16         40.0             0.04               103.22    0.004413      -11.381295      -11.376882      -11.376882    -26.85
         17         42.5             0.05               197.67    0.008451      -11.386353      -11.377902      -11.377902    -38.79
         18         45.0             0.05               173.98    0.007438      -11.381180      -11.373742      -11.373742      9.87
         19         47.5             0.06               264.17    0.011294      -11.387676      -11.376382      -11.376382    -21.01
         20         50.0             0.04               146.24    0.006252      -11.375950      -11.369698      -11.369698     57.16
         21         52.5             0.05               225.73    0.009650      -11.373627      -11.363977      -11.363977    124.07
         22         55.0             0.05               217.96    0.009318      -11.373180      -11.363862      -11.363862    125.42
         23         57.5             0.04               163.26    0.006980      -11.373700      -11.366720      -11.366720     91.99
         24         60.0             0.04               250.60    0.010714      -11.374076      -11.363363      -11.363363    131.26
         25         62.5             0.05               243.07    0.010392      -11.373308      -11.362916      -11.362916    136.48
         26         65.0             0.05               229.21    0.009799      -11.382266      -11.372467      -11.372467     24.78
         27         67.5             0.04               187.74    0.008026      -11.384822      -11.376796      -11.376796    -25.85
         28         70.0             0.05               125.22    0.005354      -11.378192      -11.372838      -11.372838     20.44
         29         72.5             0.05               166.27    0.007108      -11.381094      -11.373986      -11.373986      7.02
         30         75.0             0.04               269.00    0.011500      -11.376397      -11.364897      -11.364897    113.31
         31         77.5             0.04               435.66    0.018626      -11.358262      -11.339636      -11.339636    408.75
         32         80.0             0.05               267.15    0.011421      -11.350891      -11.339470      -11.339470    410.69
         33         82.5             0.05               705.05    0.030142      -11.378357      -11.348215      -11.348215    308.41
         34         85.0             0.05             13938.69    0.595906      -11.189022      -10.593116      -10.593116   9139.58

Warning: Some atom velocities are unreasonably large (1.2009e+00 Angstrom fs^-1) after the time integration (part 2).
         The simulation will continue anyway, but most likely the results will be wrong.
         Try to switch on "steplimit 0.1" (see manual).

         35         87.5             0.08             69130.00    2.955442      -11.168864       -8.213422       -8.213422   3.7e+04
         36         90.0             0.06             69280.44    2.961873      -11.178476       -8.216603       -8.216603   3.7e+04
         37         92.5             0.05             69026.42    2.951014      -11.164929       -8.213915       -8.213915   3.7e+04
         38         95.0             0.04             69052.36    2.952123      -11.169348       -8.217225       -8.217225   3.7e+04
         39         97.5             0.27             68947.75    2.947650      -11.162131       -8.214481       -8.214481   3.7e+04
         40        100.0             0.04             68965.97    2.948429      -11.160185       -8.211756       -8.211756   3.7e+04
         41        102.5             0.05             68818.69    2.942133      -11.151352       -8.209219       -8.209219   3.7e+04
         42        105.0             0.04             68674.38    2.935963      -11.147708       -8.211744       -8.211744   3.7e+04
         43        107.5             0.04             68697.95    2.936971      -11.138682       -8.201711       -8.201711   3.7e+04
         44        110.0             0.05             69118.59    2.954954      -11.156408       -8.201454       -8.201454   3.7e+04
         45        112.5             0.06             68933.62    2.947046      -11.139713       -8.192667       -8.192667   3.7e+04
         46        115.0             0.05             69315.75    2.963383      -11.160075       -8.196692       -8.196692   3.7e+04
         47        117.5             0.05             68899.94    2.945607      -11.116051       -8.170445       -8.170445   3.7e+04
         48        120.0             0.05             69898.38    2.988291      -11.117587       -8.129296       -8.129296   3.8e+04
         49        122.5             0.04             69041.43    2.951655      -11.079937       -8.128281       -8.128281   3.8e+04
         50        125.0             0.04             69096.79    2.954022      -11.083963       -8.129941       -8.129941   3.8e+04
         51        127.5             0.04             69827.84    2.985276      -11.112089       -8.126813       -8.126813   3.8e+04
         52        130.0             0.04             70268.47    3.004114      -11.163394       -8.159280       -8.159280   3.8e+04
         53        132.5             0.04             83065.55    3.551214      -10.891209       -7.339996       -7.339996   4.7e+04
         54        135.0             0.10             1.40e+05    5.978118      -10.971624       -4.993506       -4.993506   7.5e+04
         55        137.5             0.04             1.40e+05    5.974239      -10.965783       -4.991544       -4.991544   7.5e+04
         56        140.0             0.05             1.40e+05    5.981713      -10.972235       -4.990522       -4.990522   7.5e+04
         57        142.5             0.06             1.40e+05    5.980381      -10.970557       -4.990176       -4.990176   7.5e+04
         58        145.0             0.06             1.39e+05    5.946567      -10.934014       -4.987446       -4.987446   7.5e+04
         59        147.5             0.04             1.38e+05    5.920474      -10.907056       -4.986582       -4.986582   7.5e+04
         60        150.0             0.05             1.38e+05    5.904677      -10.894700       -4.990023       -4.990023   7.5e+04
         61        152.5             0.05             1.37e+05    5.874328      -10.856137       -4.981808       -4.981808   7.5e+04
         62        155.0             0.04             1.38e+05    5.884969      -10.873223       -4.988254       -4.988254   7.5e+04
         63        157.5             0.06             1.38e+05    5.893533      -10.880330       -4.986797       -4.986797   7.5e+04
         64        160.0             0.08             1.38e+05    5.912546      -10.900547       -4.988001       -4.988001   7.5e+04
         65        162.5             0.25             1.38e+05    5.917603      -10.912612       -4.995009       -4.995009   7.5e+04
         66        165.0             0.04             1.38e+05    5.901797      -10.861037       -4.959241       -4.959241   7.5e+04
         67        167.5             0.04             1.39e+05    5.950774      -10.860996       -4.910223       -4.910223   7.6e+04
         68        170.0             0.07             1.38e+05    5.917799      -10.829850       -4.912051       -4.912051   7.6e+04
         69        172.5             0.05             1.38e+05    5.888088      -10.800185       -4.912097       -4.912097   7.6e+04
         70        175.0             0.03             1.37e+05    5.870451      -10.780568       -4.910117       -4.910117   7.6e+04
         71        177.5             0.07             1.38e+05    5.884603      -10.796686       -4.912083       -4.912083   7.6e+04
         72        180.0             0.13             1.38e+05    5.907951      -10.821422       -4.913471       -4.913471   7.6e+04
         73        182.5             0.16             1.38e+05    5.914845      -10.824993       -4.910148       -4.910148   7.6e+04
         74        185.0             0.23             1.39e+05    5.933834      -10.819310       -4.885477       -4.885477   7.6e+04
         75        187.5             0.05             1.40e+05    5.981384      -10.807120       -4.825736       -4.825736   7.7e+04
         76        190.0             0.08             1.39e+05    5.926350      -10.752485       -4.826135       -4.826135   7.7e+04
         77        192.5             0.07             1.38e+05    5.899547      -10.726912       -4.827366       -4.827366   7.7e+04
         78        195.0             0.05             1.38e+05    5.886231      -10.713059       -4.826827       -4.826827   7.7e+04
         79        197.5             0.04             1.38e+05    5.892476      -10.718274       -4.825797       -4.825797   7.7e+04
         80        200.0             0.04             1.38e+05    5.884390      -10.716155       -4.831766       -4.831766   7.7e+04
         81        202.5             0.04             1.39e+05    5.928324      -10.777421       -4.849097       -4.849097   7.6e+04
         82        205.0             0.04             1.39e+05    5.936733      -10.776516       -4.839783       -4.839783   7.6e+04
         83        207.5             0.05             1.40e+05    5.977407      -10.816070       -4.838663       -4.838663   7.6e+04
         84        210.0             0.06             1.39e+05    5.938049      -10.837661       -4.899612       -4.899612   7.6e+04
         85        212.5             0.04             1.40e+05    5.990500      -10.734091       -4.743591       -4.743591   7.8e+04
         86        215.0             0.21             1.49e+05    6.373084      -10.729564       -4.356480       -4.356480   8.2e+04
         87        217.5             0.05             1.47e+05    6.294241      -10.676230       -4.381989       -4.381989   8.2e+04
         88        220.0             0.05             1.47e+05    6.271520      -10.651674       -4.380154       -4.380154   8.2e+04
         89        222.5             0.05             1.47e+05    6.265169      -10.645024       -4.379855       -4.379855   8.2e+04
         90        225.0             0.07             1.47e+05    6.275591      -10.658945       -4.383353       -4.383353   8.2e+04
         91        227.5             0.05             1.47e+05    6.267624      -10.645722       -4.378099       -4.378099   8.2e+04
         92        230.0             0.08             1.46e+05    6.255269      -10.638853       -4.383584       -4.383584   8.2e+04
         93        232.5             0.07             1.46e+05    6.240384      -10.621065       -4.380681       -4.380681   8.2e+04
         94        235.0             0.07             1.46e+05    6.254025      -10.635784       -4.381759       -4.381759   8.2e+04
         95        237.5             0.06             1.47e+05    6.275849      -10.660175       -4.384326       -4.384326   8.2e+04
         96        240.0             0.04             1.47e+05    6.281759      -10.664433       -4.382674       -4.382674   8.2e+04
         97        242.5             0.04             1.47e+05    6.264157      -10.646055       -4.381898       -4.381898   8.2e+04
         98        245.0             0.05             1.46e+05    6.234624      -10.613747       -4.379123       -4.379123   8.2e+04
         99        247.5             0.04             1.46e+05    6.236150      -10.615784       -4.379633       -4.379633   8.2e+04
        100        250.0             0.10             1.46e+05    6.263000      -10.645425       -4.382425       -4.382425   8.2e+04
        101        252.5             0.08             1.47e+05    6.266258      -10.637811       -4.371553       -4.371553   8.2e+04
        102        255.0             0.04             1.47e+05    6.278946      -10.646355       -4.367409       -4.367409   8.2e+04
        103        257.5             0.07             1.46e+05    6.252309      -10.617489       -4.365181       -4.365181   8.2e+04
        104        260.0             0.05             1.46e+05    6.254365      -10.620322       -4.365957       -4.365957   8.2e+04
        105        262.5             0.26             1.47e+05    6.272062      -10.643516       -4.371453       -4.371453   8.2e+04
        106        265.0             0.06             1.47e+05    6.289658      -10.597921       -4.308263       -4.308263   8.3e+04
        107        267.5             0.41             1.49e+05    6.390972      -10.587365       -4.196393       -4.196393   8.4e+04
        108        270.0             0.08             1.48e+05    6.324350      -10.521211       -4.196861       -4.196861   8.4e+04
        109        272.5             0.06             1.47e+05    6.296929      -10.495237       -4.198307       -4.198307   8.4e+04
        110        275.0             0.04             1.47e+05    6.281697      -10.481034       -4.199337       -4.199337   8.4e+04
        111        277.5             0.06             1.47e+05    6.267580      -10.467380       -4.199800       -4.199800   8.4e+04
        112        280.0             0.08             1.46e+05    6.256511      -10.455878       -4.199367       -4.199367   8.4e+04
        113        282.5             0.05             1.46e+05    6.256383      -10.455629       -4.199246       -4.199246   8.4e+04
        114        285.0             0.05             1.47e+05    6.267934      -10.468272       -4.200338       -4.200338   8.4e+04
        115        287.5             0.06             1.47e+05    6.275703      -10.475126       -4.199423       -4.199423   8.4e+04
        116        290.0             0.06             1.47e+05    6.276483      -10.476542       -4.200060       -4.200060   8.4e+04
        117        292.5             0.05             1.47e+05    6.269088      -10.469176       -4.200088       -4.200088   8.4e+04
        118        295.0             0.05             1.46e+05    6.259258      -10.458855       -4.199597       -4.199597   8.4e+04
        119        297.5             0.07             1.46e+05    6.256889      -10.456779       -4.199890       -4.199890   8.4e+04
        120        300.0             0.06             1.46e+05    6.261825      -10.461014       -4.199189       -4.199189   8.4e+04
        121        302.5             0.05             1.47e+05    6.270630      -10.471211       -4.200581       -4.200581   8.4e+04
        122        305.0             0.13             1.47e+05    6.273239      -10.472781       -4.199542       -4.199542   8.4e+04
        123        307.5             0.04             1.47e+05    6.273174      -10.472933       -4.199758       -4.199758   8.4e+04
        124        310.0             0.06             1.47e+05    6.269212      -10.469744       -4.200532       -4.200532   8.4e+04
        125        312.5             0.03             1.46e+05    6.260334      -10.459509       -4.199175       -4.199175   8.4e+04
        126        315.0             0.05             1.46e+05    6.256778      -10.456535       -4.199757       -4.199757   8.4e+04
        127        317.5             0.05             1.46e+05    6.260607      -10.460153       -4.199546       -4.199546   8.4e+04
        128        320.0             0.05             1.47e+05    6.270989      -10.471079       -4.200090       -4.200090   8.4e+04
        129        322.5             0.04             1.47e+05    6.276825      -10.476600       -4.199774       -4.199774   8.4e+04
        130        325.0             0.05             1.47e+05    6.274828      -10.474587       -4.199759       -4.199759   8.4e+04
CMDInterfaceOrca::CalcEnergy(): Error in energy calculation, ret=32768.

Error: Could not compute the energy.
       Check the log files (e.g. "etanol_instavel.scf.log" or "etanol_instavel.int.log") to obtain more information on that issue.

Aborting MD loop.

Errors occurred in the MD loop.


-------------------------------------------------------------------------------------------

Execution aborted by error.

    Total execution time: 8.802 seconds

            24 instructions executed
             6 function calls


Timings for individual modules during the MD run:

XTB module                        ...        8.338 sec (=   0.139 min)  90.1 %
ORCA initialization               ...        0.480 sec (=   0.008 min)   5.2 %
Self time inside of MD module     ...        0.432 sec (=   0.007 min)   4.7 %
------------------------------------------------------------------------------
Sum of individual times           ...        9.251 sec (=   0.154 min) 100.0 %

Total wall time of MD module      ...        9.283 sec (=   0.155 min)
             --> "dark time"      ...        0.032 sec (=   0.001 min)   0.3 %

orca_md aborted by error.


-------------------------------------------------------------------------------------------

ERROR       : MD Program returns an error
              cannot continue the md simulation
COMMAND     : /home/henrique/bin/orca611/orca_md -orca etanol_instavel 
RETURN CODE : 65280
[file orca_main/main_driver_md.cpp, line 186]: 
[file orca_main/main_driver_md.cpp, line 186]: 
