9
# ORCA AIMD Position Step 0, t=0.00 fs, E_Pot=-29915.83236038 kJ mol^-1, Unit is Angstrom
 C     -0.9014410055      0.1762512551     -0.0329715391
 C      0.4693612584     -0.4920904203     -0.0459637591
 O      1.4625627727      0.2884391739      0.5771703207
 H     -0.8814850006      1.0999065773     -0.6100653115
 H     -1.6436118109     -0.4878934336     -0.4669281575
 H     -1.1923336446      0.4111099473      0.9881002521
 H      0.7606891821     -0.7231796935     -1.0818228866
 H      0.4408164896     -1.4261885342      0.5195363336
 H      1.4854417590      1.1536451281      0.1529447472
9
# ORCA AIMD Position Step 1, t=2.50 fs, E_Pot=-29880.72911354 kJ mol^-1, Unit is Angstrom
 C     -0.8947736104      0.1641390983     -0.0368475560
 C      0.4747969761     -0.4876311057     -0.0484274321
 O      1.4529442651      0.2886686962      0.5678404917
 H     -0.8508964402      1.1604258999     -0.5759696704
 H     -1.7283392656     -0.4636467511     -0.4838441146
 H     -1.1783700775      0.4435335437      1.0104239441
 H      0.7503051109     -0.7516894355     -0.9713903435
 H      0.4770180678     -1.4222351522      0.5208313983
 H      1.5082480050      1.1485576782      0.2253387149
9
# ORCA AIMD Position Step 2, t=5.00 fs, E_Pot=-29890.81250232 kJ mol^-1, Unit is Angstrom
 C     -0.8944324707      0.1576721710     -0.0399654659
 C      0.4735673829     -0.4819066727     -0.0351938034
 O      1.4454647447      0.2838834534      0.5635893523
 H     -0.8252602020      1.1519070181     -0.5253834876
 H     -1.7394938898     -0.3973188388     -0.4702094134
 H     -1.1548416868      0.4479050563      0.9857937058
 H      0.8039433183     -0.8252513519     -1.1018837937
 H      0.4989351394     -1.4194917274      0.5414321370
 H      1.5239843700      1.2419944370      0.2425793532
9
# ORCA AIMD Position Step 3, t=7.50 fs, E_Pot=-29868.67529586 kJ mol^-1, Unit is Angstrom
 C     -0.8964808876      0.1580328411     -0.0416538781
 C      0.4732492445     -0.4835815489     -0.0300659135
 O      1.4417077908      0.2865238762      0.5601117036
 H     -0.8026392686      1.1104547234     -0.4924208327
 H     -1.7084635466     -0.3312728659     -0.4516878370
 H     -1.1337811915      0.4244448026      0.9622279020
 H      0.8260721690     -0.8536353685     -1.1670202157
 H      0.5046876981     -1.4068498887      0.5648611613
 H      1.5092207528      1.2303539886      0.2705819481
9
# ORCA AIMD Position Step 4, t=10.00 fs, E_Pot=-29889.40952282 kJ mol^-1, Unit is Angstrom
 C     -0.8911465863      0.1630912697     -0.0388305234
 C      0.4751663171     -0.4940094784     -0.0367841034
 O      1.4415965337      0.2939367830      0.5582340941
 H     -0.7747870586      1.1327552023     -0.5221311673
 H     -1.7435203668     -0.3473641697     -0.4882630315
 H     -1.1313692221      0.3910681010      1.0066429965
 H      0.7986449321     -0.8223949777     -1.1046424899
 H      0.4947786639     -1.3911568437      0.5801479144
 H      1.4667105286      1.1569114702      0.2909989558
9
# ORCA AIMD Position Step 5, t=12.50 fs, E_Pot=-29871.45249090 kJ mol^-1, Unit is Angstrom
 C     -0.8861902408      0.1722632407     -0.0334469053
 C      0.4772151891     -0.5100859737     -0.0510273947
 O      1.4443705920      0.2909203097      0.5624131039
 H     -0.7576057963      1.1590878862     -0.5664802044
 H     -1.7465228627     -0.3787733909     -0.5243617545
 H     -1.1381198360      0.3487269060      1.0427986997
 H      0.7440116218     -0.7571005665     -0.9721650443
 H      0.4702477705     -1.3924689248      0.5917115817
 H      1.4109447681      1.2704964743      0.2304895396
9
# ORCA AIMD Position Step 6, t=15.00 fs, E_Pot=-29902.61484327 kJ mol^-1, Unit is Angstrom
 C     -0.8853128057      0.1848530570     -0.0276034500
 C      0.4714209255     -0.5219934794     -0.0461435788
 O      1.4490572333      0.2973325355      0.5654965080
 H     -0.7631332133      1.1336402571     -0.5751819561
 H     -1.6730617920     -0.3837255337     -0.5265119847
 H     -1.1473460272      0.3108077186      1.0186758517
 H      0.7632734179     -0.7585198272     -1.0938381876
 H      0.4371032901     -1.4095361792      0.6001757914
 H      1.3503208367      1.2473967570      0.2019107659
9
# ORCA AIMD Position Step 7, t=17.50 fs, E_Pot=-29870.21983361 kJ mol^-1, Unit is Angstrom
 C     -0.8832999076      0.1969034012     -0.0236108739
 C      0.4654571676     -0.5326556469     -0.0410160578
 O      1.4529701991      0.3101900993      0.5654857705
 H     -0.7853531800      1.0976522866     -0.5555417345
 H     -1.5858393912     -0.3913020172     -0.5227023152
 H     -1.1687188623      0.2979438549      0.9868343288
 H      0.7797570970     -0.7671613314     -1.1862390700
 H      0.4085899792     -1.4284223975      0.5809126691
 H      1.3036913428      1.1107361769      0.2134647204
9
# ORCA AIMD Position Step 8, t=20.00 fs, E_Pot=-29885.07983409 kJ mol^-1, Unit is Angstrom
 C     -0.8741246927      0.2034220015     -0.0199592843
 C      0.4631248852     -0.5412104759     -0.0423107412
 O      1.4578241946      0.3054368489      0.5701799557
 H     -0.8080223848      1.1430351515     -0.5563418583
 H     -1.5726922631     -0.4568376409     -0.5628731562
 H     -1.2136525146      0.3172387594      1.0138735005
 H      0.7644856228     -0.7632302171     -1.1414808028
 H      0.3926759454     -1.4520375813      0.5357052703
 H      1.2307516898      1.2309848419      0.1252552979
9
# ORCA AIMD Position Step 9, t=22.50 fs, E_Pot=-29872.17132386 kJ mol^-1, Unit is Angstrom
 C     -0.8664499307      0.2030832630     -0.0182381379
 C      0.4645036958     -0.5438836214     -0.0474838192
 O      1.4576915795      0.3070165386      0.5677977352
 H     -0.8329265790      1.1968119432     -0.5474206757
 H     -1.5636410580     -0.4948422140     -0.5847693132
 H     -1.2546883532      0.3497904519      1.0192448308
 H      0.7299401209     -0.7502719422     -1.0066806372
 H      0.3897771476     -1.4878453081      0.4914329475
 H      1.2193102623      1.2163261397      0.1212738535
9
# ORCA AIMD Position Step 10, t=25.00 fs, E_Pot=-29873.27857049 kJ mol^-1, Unit is Angstrom
 C     -0.8654545092      0.1991769504     -0.0194434881
 C      0.4637941007     -0.5381233202     -0.0370773428
 O      1.4532804144      0.3141900277      0.5594487956
 H     -0.8541006005      1.1875625693     -0.5079218350
 H     -1.5338964748     -0.4654671329     -0.5639697105
 H     -1.2715316618      0.3756111455      0.9693508327
 H      0.7482235349     -0.7694393101     -1.0476465248
 H      0.3958335161     -1.5157614367      0.4687093426
 H      1.2698515309      1.0815139212      0.1974358414
9
# ORCA AIMD Position Step 11, t=27.50 fs, E_Pot=-29860.36414072 kJ mol^-1, Unit is Angstrom
 C     -0.8677952616      0.1937482160     -0.0233541106
 C      0.4639987787     -0.5291707505     -0.0221105316
 O      1.4524653744      0.2979177837      0.5597413041
 H     -0.8577325557      1.1480566108     -0.4721008539
 H     -1.5302583416     -0.4185981506     -0.5430610810
 H     -1.2773575133      0.3871476513      0.9342338673
 H      0.7797445654     -0.7865858044     -1.1367405000
 H      0.4109659616     -1.5090678653      0.4648963249
 H      1.2674068308      1.2893518841      0.1323455414
9
# ORCA AIMD Position Step 12, t=30.00 fs, E_Pot=-29871.90726482 kJ mol^-1, Unit is Angstrom
 C     -0.8679454900      0.1856235670     -0.0261277255
 C      0.4685579627     -0.5185527783     -0.0152559218
 O      1.4489240835      0.2912342371      0.5546546573
 H     -0.8326817138      1.1700453802     -0.4925456319
 H     -1.6098532301     -0.4268226792     -0.5773334547
 H     -1.2880159768      0.3843546297      0.9758392136
 H      0.7796814734     -0.7717157912     -1.1316628459
 H      0.4351644449     -1.4760971636      0.4823202015
 H      1.3121457220      1.3069117330      0.1550633884
9
# ORCA AIMD Position Step 13, t=32.50 fs, E_Pot=-29883.59500842 kJ mol^-1, Unit is Angstrom
 C     -0.8751629222      0.1763338226     -0.0288107954
 C      0.4754620475     -0.5062342252     -0.0191511817
 O      1.4448203642      0.2960048004      0.5459324404
 H     -0.7909104701      1.1854818461     -0.5292534815
 H     -1.6679845925     -0.4140912892     -0.5942515640
 H     -1.2737160425      0.3575306194      1.0042299140
 H      0.7481746127     -0.7313233243     -1.0358998273
 H      0.4635230170     -1.4476751310      0.5286705393
 H      1.3862222708      1.1249445949      0.2550097632
9
# ORCA AIMD Position Step 14, t=35.00 fs, E_Pot=-29893.70240876 kJ mol^-1, Unit is Angstrom
 C     -0.8910529297      0.1699447379     -0.0323798655
 C      0.4785591200     -0.4947740039     -0.0238902395
 O      1.4457836913      0.2842771352      0.5469622921
 H     -0.7544946521      1.1407376319     -0.5398865003
 H     -1.6601854431     -0.3628654745     -0.5699500372
 H     -1.2319413933      0.3177052850      0.9808217140
 H      0.7271564733     -0.7064168473     -0.9928797317
 H      0.4876392230     -1.4194704250      0.5876133518
 H      1.4342810878      1.2308929135      0.2454376632
9
# ORCA AIMD Position Step 15, t=37.50 fs, E_Pot=-29879.65610069 kJ mol^-1, Unit is Angstrom
 C     -0.9063565150      0.1668998004     -0.0363746345
 C      0.4740856471     -0.4854062405     -0.0191214455
 O      1.4517745030      0.2796063638      0.5512133633
 H     -0.7332595474      1.0842914837     -0.5317316375
 H     -1.6483788386     -0.3339740799     -0.5543342827
 H     -1.1967049110      0.2921746174      0.9707218469
 H      0.7509322787     -0.7345924302     -1.1188340815
 H      0.5019591823     -1.3767385211      0.6279912716
 H      1.4684778161      1.2682158725      0.2406472098
9
# ORCA AIMD Position Step 16, t=40.00 fs, E_Pot=-29881.58356087 kJ mol^-1, Unit is Angstrom
 C     -0.9124079680      0.1644361716     -0.0376775937
 C      0.4681033603     -0.4817148445     -0.0221312315
 O      1.4616594460      0.2860342859      0.5559086185
 H     -0.7244883013      1.1083140884     -0.5422632681
 H     -1.7042757045     -0.3839533179     -0.5958011175
 H     -1.1915675452      0.2946247231      1.0216191058
 H      0.7602376974     -0.7643839496     -1.1661415758
 H      0.5043463313     -1.3408213743      0.6332810646
 H      1.4852695794      1.1689429661      0.2606321853
9
# ORCA AIMD Position Step 17, t=42.50 fs, E_Pot=-29894.86385344 kJ mol^-1, Unit is Angstrom
 C     -0.9176247814      0.1617309725     -0.0381381611
 C      0.4629941537     -0.4827637107     -0.0357644325
 O      1.4734103796      0.2890429914      0.5639268686
 H     -0.7507779835      1.1534204920     -0.5434373079
 H     -1.7105359182     -0.4212064441     -0.6045328349
 H     -1.2004202935      0.3106024464      1.0339529501
 H      0.7433938488     -0.7755702737     -1.0848065099
 H      0.4915771738     -1.3495612884      0.6169834954
 H      1.4928156259      1.1620161776      0.2338375019
9
# ORCA AIMD Position Step 18, t=45.00 fs, E_Pot=-29881.28158666 kJ mol^-1, Unit is Angstrom
 C     -0.9234605823      0.1623901986     -0.0389657132
 C      0.4588631316     -0.4869113728     -0.0515341590
 O      1.4850801452      0.2881412516      0.5739158099
 H     -0.8174284030      1.1544937858     -0.5137286960
 H     -1.6473155187     -0.4186981211     -0.5632688783
 H     -1.2165572304      0.3286261152      0.9821509498
 H      0.7226914372     -0.7764253650     -0.9654775127
 H      0.4626246064     -1.3914916855      0.5870524654
 H      1.4955761845      1.2390758857      0.1644920225
9
# ORCA AIMD Position Step 19, t=47.50 fs, E_Pot=-29898.33782774 kJ mol^-1, Unit is Angstrom
 C     -0.9237587421      0.1684221102     -0.0396232876
 C      0.4515790790     -0.4885549594     -0.0453460791
 O      1.4949299048      0.2952011512      0.5792858989
 H     -0.8999936469      1.1342001115     -0.4816347510
 H     -1.6038942551     -0.4377364278     -0.5371145211
 H     -1.2511165996      0.3469506569      0.9500534922
 H      0.7731218901     -0.8321355367     -1.0858074588
 H      0.4210010690     -1.4243006627      0.5485135654
 H      1.4944841751      1.1842577261      0.1460761407
9
# ORCA AIMD Position Step 20, t=50.00 fs, E_Pot=-29867.55216050 kJ mol^-1, Unit is Angstrom
 C     -0.9162316323      0.1763631257     -0.0386280787
 C      0.4497882606     -0.4933139278     -0.0389645363
 O      1.5008621133      0.3035495080      0.5803942530
 H     -0.9729722153      1.1622715601     -0.4961657170
 H     -1.6305230204     -0.5185111105     -0.5626433684
 H     -1.3030469678      0.3574019130      0.9888378767
 H      0.8032612158     -0.8437910477     -1.1539204168
 H      0.3788811192     -1.4309689915      0.5039640896
 H      1.4954945651      1.0744119879      0.1545232073
9
# ORCA AIMD Position Step 21, t=52.50 fs, E_Pot=-29861.45218692 kJ mol^-1, Unit is Angstrom
 C     -0.9138158679      0.1821840990     -0.0370950746
 C      0.4549814432     -0.4983802257     -0.0392394865
 O      1.5020038734      0.2918286279      0.5875814627
 H     -1.0252130950      1.1809513024     -0.5342840419
 H     -1.6208647936     -0.5518934975     -0.5580712667
 H     -1.3291792155      0.3397380895      0.9985473373
 H      0.7878082541     -0.7908580169     -1.0992465590
 H      0.3467313326     -1.4365567275      0.4773954549
 H      1.5030244328      1.2364747814      0.0211886224
9
# ORCA AIMD Position Step 22, t=55.00 fs, E_Pot=-29860.27838797 kJ mol^-1, Unit is Angstrom
 C     -0.9196359181      0.1865932747     -0.0361687708
 C      0.4647021647     -0.4984426579     -0.0435847797
 O      1.4984768798      0.2884353799      0.5849502337
 H     -1.0425942781      1.1404334487     -0.5616338828
 H     -1.5649978519     -0.5197998624     -0.5165290898
 H     -1.3148961250      0.3025992416      0.9553538555
 H      0.7463657456     -0.7007733020     -0.9836771119
 H      0.3315945759     -1.4547045503      0.4865316924
 H      1.5163362464      1.2121642897      0.0079865789
9
# ORCA AIMD Position Step 23, t=57.50 fs, E_Pot=-29861.64419274 kJ mol^-1, Unit is Angstrom
 C     -0.9251759191      0.1900244448     -0.0362532020
 C      0.4696263701     -0.4906477031     -0.0300971494
 O      1.4919573540      0.2936296935      0.5742360061
 H     -1.0235534516      1.0867369971     -0.5839770588
 H     -1.5422674799     -0.5092793589     -0.5016884920
 H     -1.2918278603      0.2767340223      0.9456501612
 H      0.7653567997     -0.6548124809     -1.0851670260
 H      0.3419317492     -1.4489821897      0.5102948908
 H      1.5329842452      1.0133111557      0.1132678834
9
# ORCA AIMD Position Step 24, t=60.00 fs, E_Pot=-29862.63161396 kJ mol^-1, Unit is Angstrom
 C     -0.9241310207      0.1888418666     -0.0357824801
 C      0.4730560907     -0.4799955035     -0.0178321321
 O      1.4822192240      0.2738709039      0.5784429300
 H     -0.9814032029      1.0979511930     -0.6277068543
 H     -1.5925037796     -0.5703164385     -0.5422862779
 H     -1.2823929559      0.2814216435      1.0116094345
 H      0.7768748213     -0.6286455127     -1.1696151409
 H      0.3821476965     -1.4117738640      0.5192481676
 H      1.5811471476      1.1958461744     -0.0113962922
9
# ORCA AIMD Position Step 25, t=62.50 fs, E_Pot=-29860.61452540 kJ mol^-1, Unit is Angstrom
 C     -0.9256025679      0.1791385856     -0.0349297371
 C      0.4760928342     -0.4647360926     -0.0179087902
 O      1.4734350824      0.2653950083      0.5759851400
 H     -0.9292983015      1.1136142204     -0.6477297718
 H     -1.6134588590     -0.5804916622     -0.5513539783
 H     -1.2610990172      0.3091083233      1.0284072630
 H      0.7558153813     -0.6196621336     -1.1339220815
 H      0.4408880746     -1.3918507460      0.5262366277
 H      1.6117941853      1.2020897742     -0.0120224945
9
# ORCA AIMD Position Step 26, t=65.00 fs, E_Pot=-29884.13427265 kJ mol^-1, Unit is Angstrom
 C     -0.9300264065      0.1650299397     -0.0348297981
 C      0.4767923406     -0.4479446584     -0.0291220020
 O      1.4682606593      0.2711009270      0.5677710370
 H     -0.8819230727      1.0889883579     -0.6173860396
 H     -1.5873275484     -0.5204562799     -0.5130528547
 H     -1.2314369257      0.3516148948      0.9732935257
 H      0.7162638731     -0.6311864385     -1.0191967181
 H      0.5005612679     -1.4033477970      0.5349886946
 H      1.6150103670      1.0246633290      0.1137655361
9
# ORCA AIMD Position Step 27, t=67.50 fs, E_Pot=-29890.84479945 kJ mol^-1, Unit is Angstrom
 C     -0.9289150718      0.1530337064     -0.0349772402
 C      0.4708687815     -0.4372610879     -0.0332957183
 O      1.4645571659      0.2682416356      0.5708836721
 H     -0.8481010719      1.0635161387     -0.5743202432
 H     -1.5949977134     -0.4850294163     -0.4903166716
 H     -1.2233013768      0.4097047747      0.9450680751
 H      0.7142163405     -0.6837050814     -1.0435756755
 H      0.5386034464     -1.4023335882      0.5250231534
 H      1.6608511710      1.0691472445      0.1126192058
9
# ORCA AIMD Position Step 28, t=70.00 fs, E_Pot=-29873.43668781 kJ mol^-1, Unit is Angstrom
 C     -0.9184177537      0.1456189127     -0.0320652312
 C      0.4621424279     -0.4372016280     -0.0348482169
 O      1.4642409967      0.2670623292      0.5786750066
 H     -0.8281890952      1.0945169959     -0.5733375039
 H     -1.6856164529     -0.5288081974     -0.5192597798
 H     -1.2429609192      0.4712888195      0.9861442131
 H      0.7340333915     -0.7454489426     -1.1381943273
 H      0.5423149361     -1.3832817054      0.5010746413
 H      1.7116049444      1.1693948439      0.0782068710
9
# ORCA AIMD Position Step 29, t=72.50 fs, E_Pot=-29881.05673794 kJ mol^-1, Unit is Angstrom
 C     -0.9127685159      0.1424521468     -0.0282669805
 C      0.4564492382     -0.4473644838     -0.0448240215
 O      1.4687911342      0.2780191215      0.5825589481
 H     -0.8334157663      1.1156281287     -0.5897154343
 H     -1.7161876430     -0.5217719206     -0.5077748514
 H     -1.2528814605      0.4896691371      0.9900555845
 H      0.7375982575     -0.7645280126     -1.1522022419
 H      0.5160344825     -1.3833227952      0.4885481264
 H      1.7083427595      1.1269122432      0.1176866406
9
# ORCA AIMD Position Step 30, t=75.00 fs, E_Pot=-29868.72541434 kJ mol^-1, Unit is Angstrom
 C     -0.9150046624      0.1472903836     -0.0256727806
 C      0.4559865866     -0.4648012847     -0.0625957068
 O      1.4751193848      0.2940610535      0.5843971569
 H     -0.8638022781      1.0850854405     -0.5991514908
 H     -1.6665492038     -0.4565048713     -0.4512743407
 H     -1.2393666093      0.4575250284      0.9442153549
 H      0.7217526849     -0.7325834239     -1.0751226040
 H      0.4696893228     -1.4164894655      0.4984904023
 H      1.6694825698      1.0210565377      0.1811143862
9
# ORCA AIMD Position Step 31, t=77.50 fs, E_Pot=-29821.11085769 kJ mol^-1, Unit is Angstrom
 C     -0.9149800291      0.1612713562     -0.0251376130
 C      0.4585749381     -0.4867588102     -0.0746977766
 O      1.4740899217      0.2849875742      0.5994413290
 H     -0.9036591644      1.0464170756     -0.6153209943
 H     -1.6517411573     -0.4414711816     -0.4250553310
 H     -1.2228129771      0.4167948238      0.9483400239
 H      0.7211314785     -0.6887548070     -1.0331921381
 H      0.4155360752     -1.4377024956      0.5068783027
 H      1.7179564173      1.3018663182      0.0156678297
9
# ORCA AIMD Position Step 32, t=80.00 fs, E_Pot=-29801.75895975 kJ mol^-1, Unit is Angstrom
 C     -0.9087902778      0.1786200556     -0.0251367081
 C      0.4604033324     -0.5056229401     -0.0679919591
 O      1.4739692023      0.2873058830      0.6050255546
 H     -0.9380320882      1.0649352676     -0.6591580852
 H     -1.7156490662     -0.5198974661     -0.4519574923
 H     -1.2097047586      0.3938907426      1.0310523215
 H      0.7750262974     -0.6804069236     -1.1656418729
 H      0.3745273606     -1.4284340340      0.5013368508
 H      1.6966173758      1.3483232706     -0.0268621132
9
# ORCA AIMD Position Step 33, t=82.50 fs, E_Pot=-29873.87122601 kJ mol^-1, Unit is Angstrom
 C     -0.9091806766      0.1912219754     -0.0258213347
 C      0.4660580973     -0.5173577151     -0.0642600746
 O      1.4734719950      0.3003617953      0.5994414888
 H     -0.9667230201      1.0886600379     -0.6811962509
 H     -1.7089927874     -0.5511814625     -0.4431861019
 H     -1.1739355957      0.3733302486      1.0542471909
 H      0.8064073574     -0.6740422455     -1.2081883668
 H      0.3595970350     -1.4243666203      0.4893714841
 H      1.6115953430      1.1484545328      0.0700419455
9
# ORCA AIMD Position Step 34, t=85.00 fs, E_Pot=-29376.77151098 kJ mol^-1, Unit is Angstrom
 C     -0.9154383331      0.1975013832     -0.0283264531
 C      0.4748731717     -0.5183573256     -0.0691669890
 O      1.4707741777      0.3147542797      0.5884553561
 H     -0.9853092976      1.0817863898     -0.6527238145
 H     -1.6235142659     -0.5102436849     -0.3918602906
 H     -1.1232075394      0.3640018632      0.9997408130
 H      0.7978204047     -0.6693412673     -1.1154841959
 H      0.3709699407     -1.4548397679      0.4841891772
 H      1.5035355496      0.8581407576      0.2199197425
9
# ORCA AIMD Position Step 35, t=87.50 fs, E_Pot=-29323.84629797 kJ mol^-1, Unit is Angstrom
 C     -0.9158194988      0.1993870193     -0.0334670597
 C      0.4830394968     -0.5129444782     -0.0727999762
 O      1.4541395972      0.1528153598      0.6920722384
 H     -0.9885197915      1.0830979825     -0.6099226154
 H     -1.5776889003     -0.4977991624     -0.3604836977
 H     -1.0883656382      0.3897430250      0.9862222365
 H      0.7804090184     -0.6787057104     -1.0024428740
 H      0.4019732064     -1.4781908251      0.4672691560
 H      1.5837459286      3.3346910182     -1.4769271086
9
# ORCA AIMD Position Step 36, t=90.00 fs, E_Pot=-29349.08324504 kJ mol^-1, Unit is Angstrom
 C     -0.9029661132      0.1994499417     -0.0354513185
 C      0.4892152064     -0.4930953702     -0.0492402166
 O      1.4321523189     -0.0132905921      0.7901639147
 H     -0.9737100991      1.1317152012     -0.5965450731
 H     -1.6608653360     -0.5946304115     -0.3925147114
 H     -1.0787421194      0.4508722182      1.0448437650
 H      0.8562787051     -0.7403553463     -1.1339061150
 H      0.4270836277     -1.5053409179      0.4403341768
 H      1.6637471436      5.8097479323     -3.1724970132
9
# ORCA AIMD Position Step 37, t=92.50 fs, E_Pot=-29313.51479201 kJ mol^-1, Unit is Angstrom
 C     -0.8915086353      0.1917657658     -0.0329073338
 C      0.4999033274     -0.4716892452     -0.0248371835
 O      1.4070216440     -0.1794263172      0.8833631965
 H     -0.9469604668      1.1537898699     -0.5899558706
 H     -1.6869061435     -0.5998792977     -0.3955152085
 H     -1.0800914711      0.4980996444      1.0437040858
 H      0.9153436575     -0.7775826180     -1.1854824005
 H      0.4236546297     -1.5338054734      0.3846670923
 H      1.7437466363      8.2847904546     -4.8680557850
9
# ORCA AIMD Position Step 38, t=95.00 fs, E_Pot=-29325.11720889 kJ mol^-1, Unit is Angstrom
 C     -0.8830875429      0.1813180082     -0.0265117785
 C      0.5140244060     -0.4579391253     -0.0047671564
 O      1.3811284046     -0.3418171727      0.9732345627
 H     -0.9116577457      1.1143687166     -0.5828371455
 H     -1.6249450575     -0.4961715622     -0.3606807416
 H     -1.0880784299      0.5112492890      0.9734124988
 H      0.9363651836     -0.7597502907     -1.1077566489
 H      0.3757401561     -1.5659882632      0.2890470181
 H      1.8237356742     10.7598263411     -6.5636188001
9
# ORCA AIMD Position Step 39, t=97.50 fs, E_Pot=-29306.16961285 kJ mol^-1, Unit is Angstrom
 C     -0.8672044234      0.1756343624     -0.0175999359
 C      0.5297906643     -0.4579338567      0.0115724410
 O      1.3550992621     -0.4988277819      1.0608149189
 H     -0.8666308481      1.0649766073     -0.6066162875
 H     -1.5927548250     -0.4220293988     -0.3503877880
 H     -1.1132136155      0.5163282436      0.9467724875
 H      0.9336730240     -0.6736301753     -0.9364127518
 H      0.2823807764     -1.5972265674      0.1624279767
 H      1.9037167512     13.2348533429     -8.2591828968
9
# ORCA AIMD Position Step 40, t=100.00 fs, E_Pot=-29301.05980770 kJ mol^-1, Unit is Angstrom
 C     -0.8350446193      0.1811932533     -0.0034209315
 C      0.5413171134     -0.4728420896      0.0396278074
 O      1.3269130561     -0.6506191288      1.1449563701
 H     -0.8081082039      1.0558953467     -0.6752210996
 H     -1.7070475416     -0.4993270996     -0.4222942609
 H     -1.1562331371      0.5356771461      1.0089754731
 H      0.9984748123     -0.5440353198     -0.8678809673
 H      0.1632124314     -1.6141728393      0.0290224196
 H      1.9836938572     15.7098744071     -9.9547469606
9
# ORCA AIMD Position Step 41, t=102.50 fs, E_Pot=-29277.86943544 kJ mol^-1, Unit is Angstrom
 C     -0.8109959429      0.1892736263      0.0119302555
 C      0.5461642947     -0.5057900921      0.0872027662
 O      1.2932248460     -0.7973940912      1.2220619227
 H     -0.7479842802      1.0293586575     -0.7253606544
 H     -1.7080026605     -0.5115906685     -0.4456772791
 H     -1.1806493107      0.5321794310      1.0205138541
 H      1.1727027384     -0.3757141963     -0.9544455636
 H      0.0646426838     -1.5892843580     -0.1004935130
 H      2.0636694817     18.1848930547    -11.6503108857
9
# ORCA AIMD Position Step 42, t=105.00 fs, E_Pot=-29268.30063716 kJ mol^-1, Unit is Angstrom
 C     -0.7972316916      0.1987349981      0.0259057826
 C      0.5575582999     -0.5554498235      0.1354911190
 O      1.2512190395     -0.9383169839      1.2875370874
 H     -0.6928558600      0.9732863491     -0.7221268542
 H     -1.5778221726     -0.4372726800     -0.4026871556
 H     -1.1754122302      0.5137016138      0.9640634733
 H      1.2953176555     -0.2096207064     -0.9091093651
 H      0.0384463288     -1.5144413038     -0.2211789484
 H      2.1436444947     20.6599107288    -13.3458746965
9
# ORCA AIMD Position Step 43, t=107.50 fs, E_Pot=-29244.60451798 kJ mol^-1, Unit is Angstrom
 C     -0.7819036043      0.2073591100      0.0378346992
 C      0.5783675246     -0.6136810886      0.1834639565
 O      1.2000818151     -1.0724326296      1.3392432153
 H     -0.6306173397      0.9487405728     -0.6989287768
 H     -1.4420284451     -0.3739114107     -0.3526632930
 H     -1.1737429439      0.5330854686      0.9549267128
 H      1.3359154787     -0.0988687850     -0.7017961711
 H      0.0992229353     -1.4386205495     -0.3314642484
 H      2.2236193237     23.1349281228    -15.0414384719
9
# ORCA AIMD Position Step 44, t=110.00 fs, E_Pot=-29291.14427479 kJ mol^-1, Unit is Angstrom
 C     -0.7440197287      0.2257885536      0.0619090578
 C      0.6090532953     -0.6687783252      0.2334593475
 O      1.1406844920     -1.1997219350      1.3779927724
 H     -0.5443026704      1.0002622499     -0.6905689491
 H     -1.5672770185     -0.5435649559     -0.4426856683
 H     -1.1801155981      0.6047997936      1.0197582970
 H      1.3117056759     -0.0713224609     -0.3642961822
 H      0.2144665594     -1.4375064125     -0.4541944207
 H      2.3035941932     25.6099455809    -16.7370022532
9
# ORCA AIMD Position Step 45, t=112.50 fs, E_Pot=-29247.31070034 kJ mol^-1, Unit is Angstrom
 C     -0.7126530452      0.2325980979      0.0873304892
 C      0.6370411089     -0.7212424116      0.2890036969
 O      1.0745598982     -1.3216635901      1.4071627186
 H     -0.4662460324      1.0336863908     -0.6465691940
 H     -1.5957222932     -0.5892717112     -0.4543885494
 H     -1.1558050475      0.6594407216      1.0242311765
 H      1.3330952787     -0.0695749193     -0.0203176646
 H      0.3814623344     -1.4771643984     -0.5671268640
 H      2.3835691556     28.0849632312    -18.4325660589
9
# ORCA AIMD Position Step 46, t=115.00 fs, E_Pot=-29300.77239120 kJ mol^-1, Unit is Angstrom
 C     -0.6866480138      0.2276286751      0.1126371372
 C      0.6435897173     -0.7867734296      0.3481497643
 O      1.0034816250     -1.4391776926      1.4309265056
 H     -0.4095179105      1.0176857484     -0.5653843855
 H     -1.4839632014     -0.4838320741     -0.3721538969
 H     -1.1015334745      0.6826603917      0.9702053854
 H      1.5336065659      0.0568822979      0.2413891771
 H      0.6184746993     -1.4860511845     -0.6261539829
 H      2.4635441819     30.5599810806    -20.1281299210
9
# ORCA AIMD Position Step 47, t=117.50 fs, E_Pot=-29185.18764449 kJ mol^-1, Unit is Angstrom
 C     -0.6580811985      0.2071833073      0.1345342351
 C      0.6509495248     -0.8484518332      0.4019602086
 O      0.9279267938     -1.5523765225      1.4506792367
 H     -0.3466403897      0.9922424630     -0.5056568928
 H     -1.2873188220     -0.2928715370     -0.2392068902
 H     -1.0571033144      0.7094128646      0.9796260153
 H      1.6559187128      0.0983099522      0.4932251395
 H      0.8833535830     -1.4195118218     -0.6001434358
 H      2.5435192236     33.0349990001    -21.8236938170
9
# ORCA AIMD Position Step 48, t=120.00 fs, E_Pot=-29189.21959196 kJ mol^-1, Unit is Angstrom
 C     -0.5781443549      0.2093932822      0.1843173426
 C      0.6640937628     -0.9017059592      0.4535521017
 O      0.8479753964     -1.6617079016      1.4670962846
 H     -0.2428993547      0.9966981727     -0.4949951197
 H     -1.6260744610     -0.5403991623     -0.4326066506
 H     -1.0079464226      0.7407374160      1.0689323173
 H      1.6783521423      0.0474508976      0.7181603430
 H      1.1266694296     -1.2883875562     -0.5046063622
 H      2.6234942623     35.5100169002    -23.5192577025
9
# ORCA AIMD Position Step 49, t=122.50 fs, E_Pot=-29090.36794743 kJ mol^-1, Unit is Angstrom
 C     -0.5033757274      0.1962377589      0.2316115699
 C      0.6819578313     -0.9412260756      0.5071394136
 O      0.7636909186     -1.7685993573      1.4807126380
 H     -0.1437373308      0.9608506221     -0.4931987980
 H     -1.7834433563     -0.6535592240     -0.5194910184
 H     -0.9329699393      0.7048470626      1.1248033140
 H      1.6141706670     -0.0711179830      0.9092693835
 H      1.3280904389     -1.1356889920     -0.3891252114
 H      2.7034692931     37.9850346953    -25.2148215253
9
# ORCA AIMD Position Step 50, t=125.00 fs, E_Pot=-29100.93878850 kJ mol^-1, Unit is Angstrom
 C     -0.4314880110      0.1691959827      0.2744121150
 C      0.7045720705     -0.9635723263      0.5659119794
 O      0.6755262233     -1.8744549107      1.4908970916
 H     -0.0704939025      0.8666698748     -0.4687693620
 H     -1.7625370044     -0.6428040320     -0.5005230564
 H     -0.8424841881      0.6100631679      1.1361037323
 H      1.4741429613     -0.2292305745      1.0714771002
 H      1.4768051765     -1.0057509639     -0.2824271224
 H      2.7834443202     40.4600522299    -26.9103851752
9
# ORCA AIMD Position Step 51, t=127.50 fs, E_Pot=-29174.78282105 kJ mol^-1, Unit is Angstrom
 C     -0.3623120272      0.1215009489      0.3070553917
 C      0.7307786858     -0.9712851909      0.6295152780
 O      0.5846622372     -1.9794675773      1.4960338981
 H     -0.0088580466      0.7634168110     -0.4452250980
 H     -1.5652773129     -0.5215192852     -0.3769396760
 H     -0.7863453231      0.5216239627      1.1882721706
 H      1.3053595518     -0.3761315212      1.2390992031
 H      1.5562264803     -0.9364736094     -0.1821563194
 H      2.8634193503     42.9350693768    -28.6059485518
9
# ORCA AIMD Position Step 52, t=130.00 fs, E_Pot=-29309.48419612 kJ mol^-1, Unit is Angstrom
 C     -0.3060849338      0.0519041169      0.3310325220
 C      0.7516639753     -0.9799937680      0.6904081513
 O      0.4926615971     -2.0817983728      1.4937909147
 H      0.0681120058      0.7106023413     -0.4481183223
 H     -1.1742715775     -0.3048889856     -0.1410917863
 H     -0.7520201272      0.4598660270      1.2671877052
 H      1.2503674354     -0.3880599660      1.5423531375
 H      1.5703328688     -0.9443613584     -0.0773999209
 H      2.9433943818     45.4100862727    -30.3015117445
9
# ORCA AIMD Position Step 53, t=132.50 fs, E_Pot=-28594.86465819 kJ mol^-1, Unit is Angstrom
 C     -0.2526872293     -0.0178843231      0.3576876554
 C      0.7749851081     -0.9905237032      0.7647941609
 O      0.4020451904     -2.1764683072      1.4819597475
 H      0.1678033231      0.6962173117     -0.4029595074
 H     -0.8538523945     -0.1715062750      0.0542361215
 H     -0.6734422817      0.4252228342      1.3009757124
 H      1.2111254758     -0.4154865597      1.8212591410
 H      1.5550205157     -1.0166549752      0.0487936507
 H      3.0233694118     47.8851030730    -31.9970748647
9
# ORCA AIMD Position Step 54, t=135.00 fs, E_Pot=-28805.99376809 kJ mol^-1, Unit is Angstrom
 C      0.0272590449     -0.0161601679      0.5022687070
 C      0.7974011918     -1.0113540413      0.8650970233
 O      0.3152406224     -2.2594167006      1.4608462204
 H      0.3020520292      0.7049411117     -0.2833918375
 H     -3.4268633039     -0.9056467018     -1.2379343186
 H     -0.5448880218      0.4413901805      1.3209491200
 H      1.1697677968     -0.5155945297      1.9818043143
 H      1.6015238099     -1.1380925534      0.1535982990
 H      3.1033444414     50.3601198342    -33.6926379525
9
# ORCA AIMD Position Step 55, t=137.50 fs, E_Pot=-28790.65749504 kJ mol^-1, Unit is Angstrom
 C      0.2912253912      0.0171893318      0.6475225053
 C      0.8314917238     -1.0676890356      0.9834280438
 O      0.2351507554     -2.3278841362      1.4358721247
 H      0.4299995708      0.6813395223     -0.1446390210
 H     -5.9992438006     -1.6395629257     -2.5298189385
 H     -0.4693818325      0.4403608890      1.2864951515
 H      1.0882254035     -0.6970601616      2.0161750347
 H      1.6916574259     -1.3124920145      0.2579748281
 H      3.1833194862     52.8351364737    -35.3882009207
9
# ORCA AIMD Position Step 56, t=140.00 fs, E_Pot=-28807.59694762 kJ mol^-1, Unit is Angstrom
 C      0.5274440239      0.0914199665      0.7905910295
 C      0.8849294417     -1.1819510986      1.1059910339
 O      0.1612279704     -2.3818463167      1.4095339368
 H      0.6204040677      0.6915652695     -0.0763021564
 H     -8.5716230116     -2.3734427484     -3.8217133343
 H     -0.4428848538      0.4369848732      1.2584989163
 H      1.0200916506     -0.9215565719      2.0469427609
 H      1.7571472310     -1.5024915296      0.4271853587
 H      3.2632945506     55.3101529788    -37.0837637536
9
# ORCA AIMD Position Step 57, t=142.50 fs, E_Pot=-28803.19149179 kJ mol^-1, Unit is Angstrom
 C      0.7406806288      0.1771867473      0.9361722579
 C      0.9389238887     -1.3302354292      1.1974790304
 O      0.0919195302     -2.4225754615      1.3830362049
 H      0.8968693158      0.7114563018     -0.0297247379
 H    -11.1440050616     -3.1073176297     -5.1136106807
 H     -0.3647069636      0.4168372208      1.2240365514
 H      1.0308695132     -1.0930279476      2.3826874459
 H      1.7999601627     -1.6805123751      0.6625186379
 H      3.3432696243     57.7851694373    -38.7793265358
9
# ORCA AIMD Position Step 58, t=145.00 fs, E_Pot=-28707.24801090 kJ mol^-1, Unit is Angstrom
 C      0.9320630655      0.2488158879      1.0804016971
 C      0.9862516240     -1.4771043977      1.2909506345
 O      0.0268206966     -2.4502984974      1.3563257975
 H      1.2409638447      0.6917808102      0.1010936405
 H    -13.7163881227     -3.8411915388     -6.4055088857
 H     -0.1722339408      0.3947885127      1.1878144781
 H      1.0714137669     -1.2731404975      2.6238586860
 H      1.9041138416     -1.8632641646      0.9057919953
 H      3.4232447041     60.2601858768    -40.4748892957
9
# ORCA AIMD Position Step 59, t=147.50 fs, E_Pot=-28636.46993301 kJ mol^-1, Unit is Angstrom
 C      1.1073284961      0.2943289611      1.2182910254
 C      1.0249378170     -1.6165539631      1.3941938967
 O     -0.0310659813     -2.4641359334      1.3284922809
 H      1.6289466468      0.6412327983      0.3305050879
 H    -16.2887718236     -4.5750650345     -7.6974076075
 H      0.0835559561      0.4053076665      1.1780833071
 H      1.1364647558     -1.4491059459      2.7168616888
 H      2.0570995713     -2.0494679993      1.1490869360
 H      3.5032197897     62.7352023033    -42.1704520397
9
# ORCA AIMD Position Step 60, t=150.00 fs, E_Pot=-28604.02916620 kJ mol^-1, Unit is Angstrom
 C      1.2814157454      0.3093671520      1.3502211517
 C      1.0605528274     -1.7523889440      1.5079313013
 O     -0.0767985770     -2.4641262161      1.2999671099
 H      2.0533662018      0.5847450814      0.6204702161
 H    -18.8611561203     -5.3089382648     -8.9893067924
 H      0.2335221444      0.4769042302      1.1999085698
 H      1.2087770505     -1.6146403080      2.6685936628
 H      2.1299356942     -2.2009646571      1.3984843168
 H      3.5831948832     65.2102187158    -43.8660147669
9
# ORCA AIMD Position Step 61, t=152.50 fs, E_Pot=-28502.78102627 kJ mol^-1, Unit is Angstrom
 C      1.4508243039      0.2984634354      1.4745808308
 C      1.0917140403     -1.8868157596      1.6303334331
 O     -0.1064206867     -2.4517980841      1.2722350823
 H      2.4567604666      0.5275617121      0.9760678577
 H    -21.4335410535     -6.0428112740    -10.2812064670
 H      0.3889398051      0.5944291677      1.2386269229
 H      1.2517068929     -1.7605418941      2.5678351808
 H      2.1008424516     -2.3205090940      1.5922191385
 H      3.6631699905     67.6852351064    -45.5615774678
9
# ORCA AIMD Position Step 62, t=155.00 fs, E_Pot=-28547.64137498 kJ mol^-1, Unit is Angstrom
 C      1.6168296735      0.2703096125      1.5907345726
 C      1.1037908813     -2.0270290870      1.7279220039
 O     -0.1162657125     -2.4288233779      1.2475041467
 H      2.7441377187      0.4754386416      1.3899781782
 H    -24.0059265248     -6.7766841168    -11.5731065512
 H      0.6513173905      0.7303489825      1.2927961917
 H      1.2557796507     -1.8040538190      2.8906637153
 H      2.0737160135     -2.4603843408      1.6344199200
 H      3.7431451153     70.1602514700    -47.2571401365
9
# ORCA AIMD Position Step 63, t=157.50 fs, E_Pot=-28566.30064862 kJ mol^-1, Unit is Angstrom
 C      1.7850527123      0.2285534449      1.7024709697
 C      1.0903974997     -2.1689453331      1.8326075091
 O     -0.1007335956     -2.3962644506      1.2311103690
 H      2.8863711470      0.4424464041      1.8235071623
 H    -26.5783123581     -7.5105568798    -12.8650068942
 H      0.9995616091      0.8822383572      1.3609220645
 H      1.1755100086     -1.8416443383      3.1287929633
 H      2.0644927590     -2.6110298967      1.5634882708
 H      3.8231202528     72.6352678162    -48.9527027828
9
# ORCA AIMD Position Step 64, t=160.00 fs, E_Pot=-28619.38066131 kJ mol^-1, Unit is Angstrom
 C      1.9568555375      0.1751735932      1.8138779474
 C      1.0491014864     -2.3125337319      1.9385166289
 O     -0.0575985490     -2.3574921493      1.2281340873
 H      2.9395690823      0.4378937758      2.2461791442
 H    -29.1506983568     -8.2444296307    -14.1569073426
 H      1.3754612572      1.0697811509      1.4364005786
 H      1.0560118570     -1.9161380829      3.1738414164
 H      2.0075869923     -2.7290552179      1.4655241171
 H      3.9030953958     75.1102841572    -50.6482654208
9
# ORCA AIMD Position Step 65, t=162.50 fs, E_Pot=-28651.05615520 kJ mol^-1, Unit is Angstrom
 C      2.1263072057      0.1212389964      1.9235073604
 C      0.9845631126     -2.4543104538      2.0347656882
 O      0.0080790903     -2.3172915374      1.2409251090
 H      2.9701485016      0.4490398137      2.6605850543
 H    -31.7230843412     -8.9783023808    -15.4488077833
 H      1.7951766964      1.2172411715      1.5419459527
 H      0.9350451338     -2.0505897362      3.0244693450
 H      1.8781199660     -2.8003858919      1.4262076988
 H      3.9830705391     77.5853004981    -52.3438280584
9
# ORCA AIMD Position Step 66, t=165.00 fs, E_Pot=-28515.64762497 kJ mol^-1, Unit is Angstrom
 C      2.2986808172      0.0799114002      2.0348898472
 C      0.9075715139     -2.5924102034      2.1038624465
 O      0.0824766892     -2.2789388033      1.2652795562
 H      2.9459783333      0.4203038231      3.0297386217
 H    -34.2954703172     -9.7121751298    -16.7407082206
 H      2.2338198287      1.2444899991      1.6747182599
 H      0.8344635770     -2.1969766364      2.9077919260
 H      1.7392579028     -2.8643930619      1.4913359945
 H      4.0630456826     80.0603168392    -54.0393906958
9
# ORCA AIMD Position Step 67, t=167.50 fs, E_Pot=-28515.54068612 kJ mol^-1, Unit is Angstrom
 C      2.4780363002      0.0554339793      2.1540563849
 C      0.8331624467     -2.7430431995      2.1127895970
 O      0.1484089406     -2.2407119465      1.2895964518
 H      2.8558604742      0.3160981921      3.3082548403
 H    -36.8678562899    -10.4460478782    -18.0326086566
 H      2.6552132610      1.1417931778      1.8078069143
 H      0.7131741091     -2.1099820532      3.4315377583
 H      1.7246970213     -3.0058076191      1.6311673103
 H      4.1430208263     82.5353331803    -55.7349533331
9
# ORCA AIMD Position Step 68, t=170.00 fs, E_Pot=-28433.76506411 kJ mol^-1, Unit is Angstrom
 C      2.6636965081      0.0414629913      2.2848225959
 C      0.7585278779     -2.8739024885      2.1314092685
 O      0.2050865753     -2.2020478012      1.3124393831
 H      2.7167424942      0.1472446484      3.4707372383
 H    -39.4402422609    -11.1799206261    -19.3245090921
 H      3.0514294135      0.9745343070      1.9198786862
 H      0.6192723519     -2.1555737229      3.7935293639
 H      1.8313772769     -3.2531749098      1.8394874916
 H      4.2229959700     85.0103495215    -57.4305159704
9
# ORCA AIMD Position Step 69, t=172.50 fs, E_Pot=-28355.88029969 kJ mol^-1, Unit is Angstrom
 C      2.8488900023      0.0244579263      2.4269162585
 C      0.6933550893     -2.9856496175      2.1508078101
 O      0.2610724397     -2.1695934721      1.3401655099
 H      2.5697363002     -0.0337656530      3.5193791214
 H    -42.0126282442    -11.9137933796    -20.6164095334
 H      3.4626342110      0.8530789464      2.0108707748
 H      0.5338549031     -2.3065678685      3.9976880374
 H      1.8262703157     -3.5218053248      2.1187996229
 H      4.3029711148     87.4853658626    -59.1260786069
9
# ORCA AIMD Position Step 70, t=175.00 fs, E_Pot=-28304.37656579 kJ mol^-1, Unit is Angstrom
 C      3.0329015026      0.0042216805      2.5688801272
 C      0.6374726093     -3.0738181731      2.1681036725
 O      0.3218571755     -2.1523603615      1.3792154919
 H      2.4608069465     -0.1694665033      3.5098699594
 H    -44.5850141995    -12.6476661481    -21.9083099564
 H      3.8509448124      0.7230639581      2.1613446993
 H      0.4452517235     -2.5357380751      4.0547388724
 H      1.6363825625     -3.7498708476      2.3907576965
 H      4.3829462665     89.9603821957    -60.8216412336
9
# ORCA AIMD Position Step 71, t=177.50 fs, E_Pot=-28346.69373596 kJ mol^-1, Unit is Angstrom
 C      3.2190078457     -0.0180119069      2.7042060882
 C      0.5893132192     -3.1351593747      2.1869543288
 O      0.3878594343     -2.1560737189      1.4320827555
 H      2.4204046002     -0.2370589535      3.4714480359
 H    -47.1573997499    -13.3815389111    -23.2002101408
 H      4.1459804648      0.5473100317      2.4196042786
 H      0.3467291462     -2.8194604714      3.9571822107
 H      1.2813617751     -3.9091570976      2.5797105843
 H      4.4629214489     92.4353984698    -62.5172037999
9
# ORCA AIMD Position Step 72, t=180.00 fs, E_Pot=-28411.63718794 kJ mol^-1, Unit is Angstrom
 C      3.4038870407     -0.0431022325      2.8369635536
 C      0.5433663785     -3.1687365820      2.2117503370
 O      0.4567254525     -2.1810712646      1.4980561695
 H      2.4804680571     -0.2467223743      3.3893284508
 H    -49.7297845190    -14.1154116362    -24.4921098598
 H      4.3547263739      0.3466891830      2.7519563999
 H      0.2359522646     -3.1165804206      3.6949537559
 H      0.8672230197     -4.0470714451      2.6546811583
 H      4.5428966822     94.9104146336    -64.2127662568
9
# ORCA AIMD Position Step 73, t=182.50 fs, E_Pot=-28421.01482219 kJ mol^-1, Unit is Angstrom
 C      3.5779337210     -0.0738403429      2.9681914418
 C      0.4942298062     -3.1831222085      2.2467899654
 O      0.5261621072     -2.2197291085      1.5722527969
 H      2.6121799311     -0.2267913766      3.2969122748
 H    -52.3021684798    -14.8492843190    -25.7840090587
 H      4.6203927642      0.1833745347      3.1124836671
 H      0.0954266343     -3.3175756708      3.3254048330
 H      0.5122906230     -4.2925779270      2.5847402661
 H      4.6228719678     97.3854306824    -65.9083285963
9
# ORCA AIMD Position Step 74, t=185.00 fs, E_Pot=-28406.09328714 kJ mol^-1, Unit is Angstrom
 C      3.7606643267     -0.1038593665      3.0932523498
 C      0.4366007941     -3.2213226503      2.3086127591
 O      0.5974097283     -2.2557935438      1.6415553969
 H      2.6944741187     -0.2081995221      3.2532201410
 H    -54.8745516596    -15.5831569632    -27.0759077067
 H      4.8315567153      0.0127542986      3.4969510949
 H     -0.0983818836     -3.2496148537      3.0210886472
 H      0.2835350270     -4.5643571281      2.2089241309
 H      4.7028473037     99.8604466208    -67.6038908171
9
# ORCA AIMD Position Step 75, t=187.50 fs, E_Pot=-28374.08728320 kJ mol^-1, Unit is Angstrom
 C      3.9516972638     -0.1330380387      3.2156490905
 C      0.3962514947     -3.2737736451      2.3304718405
 O      0.6737787854     -2.2934697972      1.7062347430
 H      2.8274585088     -0.1840221809      3.2484174226
 H    -57.4469341430    -16.3170295483    -28.3678058544
 H      4.8927387356     -0.1735214059      3.8732464823
 H     -0.6873474075     -3.1219425860      3.3702468321
 H      0.1631125560     -4.7004033402      1.7302359745
 H      4.7828226837    102.3354624548    -69.2994529244
9
# ORCA AIMD Position Step 76, t=190.00 fs, E_Pot=-28230.64299050 kJ mol^-1, Unit is Angstrom
 C      4.1463438046     -0.1614897903      3.3339640289
 C      0.3334779765     -3.3266459422      2.3471085786
 O      0.7514616184     -2.3409324849      1.7767070257
 H      3.0571787543     -0.1643548353      3.3075915377
 H    -60.0193161887    -17.0509020988    -29.6597036906
 H      4.8136400289     -0.3641785331      4.2333251686
 H     -1.0995176701     -3.0260185922      3.6049631331
 H      0.1127281163     -4.6441209602      1.3371487312
 H      4.8627980911    104.8104782224    -70.9950149599
9
# ORCA AIMD Position Step 77, t=192.50 fs, E_Pot=-28163.50289264 kJ mol^-1, Unit is Angstrom
 C      4.3481212307     -0.1894690447      3.4507242562
 C      0.2624855301     -3.3674084620      2.3453822069
 O      0.8248098370     -2.4032863107      1.8579955366
 H      3.2971741372     -0.1580213225      3.4219262387
 H    -62.5916981146    -17.7847746439    -30.9516014353
 H      4.6388421076     -0.5473941041      4.5561146629
 H     -1.3782858093     -2.9683590221      3.7469739552
 H      0.0961293743     -4.4572556583      1.0845543047
 H      4.9427735046    107.2854939748    -72.6905769779
9
# ORCA AIMD Position Step 78, t=195.00 fs, E_Pot=-28127.12975903 kJ mol^-1, Unit is Angstrom
 C      4.5607846830     -0.2206733647      3.5769859563
 C      0.1936779209     -3.3926408404      2.3209283338
 O      0.8901752089     -2.4800897507      1.9507080924
 H      3.4390518919     -0.1497284872      3.5350590094
 H    -65.1640800403    -18.5186471891    -32.2434991796
 H      4.4320469948     -0.6944218969      4.7663634602
 H     -1.5618238704     -2.9416564031      3.8201477345
 H      0.0853711503     -4.1948591648      0.9908138875
 H      5.0227489181    109.7605097273    -74.3861389959
9
# ORCA AIMD Position Step 79, t=197.50 fs, E_Pot=-28140.82263627 kJ mol^-1, Unit is Angstrom
 C      4.7661521510     -0.2581630500      3.7197403282
 C      0.1303623525     -3.4062285046      2.2734817165
 O      0.9480553571     -2.5657391927      2.0533015888
 H      3.5989695241     -0.1199598772      3.5914693187
 H    -67.7364619659    -19.2525197344    -33.5353969239
 H      4.2937097901     -0.7883719624      4.8362916737
 H     -1.6676293016     -2.9414905381      3.8346977558
 H      0.0506833624     -3.9039357221      1.0733624974
 H      5.1027243316    112.2355254798    -76.0817010139
9
# ORCA AIMD Position Step 80, t=200.00 fs, E_Pot=-28135.26047365 kJ mol^-1, Unit is Angstrom
 C      4.9531046506     -0.3021365900      3.8777798397
 C      0.0698949110     -3.4132105624      2.2046660065
 O      1.0033004111     -2.6526054064      2.1647795302
 H      3.8435218755     -0.0574122645      3.5705178505
 H    -70.3088438889    -19.9863922795    -34.8272946665
 H      4.2896605388     -0.8382689965      4.8009368790
 H     -1.6980238506     -2.9671088054      3.7899728296
 H     -0.0510242843     -3.6461983064      1.3293111214
 H      5.1826997449    114.7105412323    -77.7772630320
9
# ORCA AIMD Position Step 81, t=202.50 fs, E_Pot=-28296.11437107 kJ mol^-1, Unit is Angstrom
 C      5.1199706385     -0.3510374698      4.0454642454
 C      0.0208260234     -3.3939719618      2.1748689657
 O      1.0569007841     -2.7407417143      2.2842612772
 H      4.1804826470      0.0425183262      3.4803961676
 H    -72.8812257989    -20.7202648236    -36.1191924020
 H      4.4319920925     -0.8673212621      4.7194034384
 H     -1.6453688434     -3.0204099822      3.6776471822
 H     -0.3449434337     -3.6525710176      1.0613135404
 H      5.2626751579    117.1855569838    -79.4728250498
9
# ORCA AIMD Position Step 82, t=205.00 fs, E_Pot=-28293.73774317 kJ mol^-1, Unit is Angstrom
 C      5.2763086656     -0.3972364109      4.2091568461
 C     -0.0182395370     -3.3570898583      2.1386783668
 O      1.0958022313     -2.8395585148      2.4048363771
 H      4.6077766336      0.1594830564      3.3697660188
 H    -75.4536077085    -21.4541373675    -37.4110901374
 H      4.6089386581     -0.9460326958      4.7056300432
 H     -1.4945930378     -3.1053032642      3.4826350791
 H     -0.6223785446     -3.6676352238      0.9351457182
 H      5.3426505708    119.6605727353    -81.1683870675
9
# ORCA AIMD Position Step 83, t=207.50 fs, E_Pot=-28397.58570725 kJ mol^-1, Unit is Angstrom
 C      5.4396548201     -0.4266471041      4.3543292311
 C     -0.0464308348     -3.3038817841      2.1046466620
 O      1.1110590321     -2.9509561215      2.5188277924
 H      5.1142192673      0.2216041006      3.3449212261
 H    -78.0259896173    -22.1880099113    -38.7029878723
 H      4.6228140718     -1.1702486417      4.8265430848
 H     -1.2145466636     -3.2222456265      3.1759336941
 H     -0.7829540695     -3.6451975504      0.9996479705
 H      5.4226259836    122.1355884868    -82.8639490853
9
# ORCA AIMD Position Step 84, t=210.00 fs, E_Pot=-28454.27407083 kJ mol^-1, Unit is Angstrom
 C      5.5974263208     -0.4551992043      4.4952189201
 C     -0.0688318928     -3.2420276440      2.0858078649
 O      1.1005742967     -3.0714158735      2.6201529738
 H      5.6244548621      0.1772276784      3.4571413632
 H    -80.5983715068    -22.9218824515    -39.9948855970
 H      4.6989303814     -1.2984727729      4.8612008373
 H     -0.7704216880     -3.3536062193      2.7305851709
 H     -0.7676406479     -3.5672558312      1.2230239397
 H      5.5026013960    124.6106042357    -84.5595111017
9
# ORCA AIMD Position Step 85, t=212.50 fs, E_Pot=-28182.35070059 kJ mol^-1, Unit is Angstrom
 C      5.7512064787     -0.4864008107      4.6359136186
 C     -0.0598299480     -3.1807722620      2.0644341986
 O      1.0731776616     -3.1941105803      2.7060487818
 H      6.0744551271      0.0242023678      3.6818215907
 H    -83.1707533209    -23.6557549781    -41.2867832780
 H      4.8823530028     -1.2868216823      4.7854116285
 H     -0.6097124753     -3.4877657939      2.6169642996
 H     -0.5741848688     -3.4435629494      1.3900825758
 H      5.5825768094    127.0856199709    -86.2550731075
9
# ORCA AIMD Position Step 86, t=215.00 fs, E_Pot=-28170.46549115 kJ mol^-1, Unit is Angstrom
 C      5.9026674149     -0.5205702744      4.7805576294
 C      0.0512565099     -3.0850700560      2.0501762662
 O      1.0385192622     -3.3127809116      2.7776384754
 H      6.4589818198     -0.1935863494      3.9361983437
 H    -85.7431350232    -24.3896274858    -42.5786808961
 H      5.1583008110     -1.1754409884      4.6326097536
 H     -1.2894312249     -3.9765162636      3.4188188754
 H     -0.6408647104     -3.4392134701      0.7842013245
 H      5.6625522262    129.5606356830    -87.9506350952
9
# ORCA AIMD Position Step 87, t=217.50 fs, E_Pot=-28030.43733113 kJ mol^-1, Unit is Angstrom
 C      6.0658313168     -0.5431615567      4.9350218394
 C      0.1671892214     -3.0122580363      2.0552514153
 O      0.9883534624     -3.4238159396      2.8295851230
 H      6.8574702795     -0.4096129467      4.1318687780
 H    -88.3155166454    -25.1234999810    -43.8705784801
 H      5.2806615068     -1.2039233740      4.4215607147
 H     -1.9266767787     -4.3915920177      4.1318106492
 H     -0.5614537703     -3.3568352890      0.3485301960
 H      5.7425276470    132.0356513751    -89.6461970691
9
# ORCA AIMD Position Step 88, t=220.00 fs, E_Pot=-27965.96525751 kJ mol^-1, Unit is Angstrom
 C      6.2281528221     -0.5686740167      5.0834319182
 C      0.2993446457     -2.9485348332      2.0757226247
 O      0.9229816685     -3.5282256890      2.8652231402
 H      7.2251885758     -0.6280175474      4.3658648467
 H    -90.8878982403    -25.8573724732    -45.1624760537
 H      5.4438134772     -1.1952382579      4.2443442993
 H     -2.5627464007     -4.8048905054      4.8427158777
 H     -0.4351568444     -3.2730732622     -0.0096770767
 H      5.8225030695    134.5106670603    -91.3417590387
9
# ORCA AIMD Position Step 89, t=222.50 fs, E_Pot=-27948.50496467 kJ mol^-1, Unit is Angstrom
 C      6.3908921173     -0.6028795505      5.2134707804
 C      0.4396292199     -2.8928585655      2.1059451937
 O      0.8506126216     -3.6265997108      2.8914904203
 H      7.4941532091     -0.8304899556      4.6919210365
 H    -93.4602798280    -26.5912449653    -46.4543736251
 H      5.7007478377     -1.0989049154      4.1939512761
 H     -3.1986170425     -5.2180902388      5.5534469528
 H     -0.2948696207     -3.1893211163     -0.3351497397
 H      5.9024784926    136.9856827434    -93.0373210072
9
# ORCA AIMD Position Step 90, t=225.00 fs, E_Pot=-27985.05383146 kJ mol^-1, Unit is Angstrom
 C      6.5566767665     -0.6461504764      5.3243009084
 C      0.5842265317     -2.8453246253      2.1441118385
 O      0.7747328753     -3.7188807758      2.9109576255
 H      7.6470755184     -0.9987096439      5.0945241331
 H    -96.0326614144    -27.3251174576    -47.7462711964
 H      6.0374270340     -0.9288028902      4.2958603295
 H     -3.8344353591     -5.6312640692      6.2641331545
 H     -0.1502919563     -3.1052822429     -0.6472695572
 H      5.9824539159    139.4606984263    -94.7328829756
9
# ORCA AIMD Position Step 91, t=227.50 fs, E_Pot=-27950.33891905 kJ mol^-1, Unit is Angstrom
 C      6.7260089658     -0.6944029887      5.4247281274
 C      0.7329484084     -2.8170492209      2.1988618620
 O      0.6956724228     -3.7967074829      2.9176521563
 H      7.7251551002     -1.1371000324      5.5270213653
 H    -98.6050430010    -28.0589899499    -49.0381687677
 H      6.4066477445     -0.7291708232      4.4917995389
 H     -4.4702395323     -6.0444311039      6.9748078486
 H     -0.0043614039     -3.0211920133     -0.9542184326
 H      6.0624293392    141.9357141091    -96.4284449440
9
# ORCA AIMD Position Step 92, t=230.00 fs, E_Pot=-27932.30387422 kJ mol^-1, Unit is Angstrom
 C      6.9025252944     -0.7415225048      5.5479846217
 C      0.8804145055     -2.8213053595      2.2773557178
 O      0.6175288905     -3.8501095225      2.9063947010
 H      7.8008358409     -1.2757559101      5.9523154590
 H   -101.1774245871    -28.7928624424    -50.3300663390
 H      6.6926228082     -0.5427770384      4.4228889934
 H     -5.1060388204     -6.4575962625      7.6854784061
 H      0.1420150862     -2.9371339224     -1.2591259239
 H      6.1424047627    144.4107297918    -98.1240069124
9
# ORCA AIMD Position Step 93, t=232.50 fs, E_Pot=-27885.60081491 kJ mol^-1, Unit is Angstrom
 C      7.0757716653     -0.7866712148      5.6693761554
 C      1.0180583400     -2.8640122614      2.3793231307
 O      0.5467540601     -3.8746411697      2.8774692804
 H      7.8493147438     -1.3938676124      6.3046634387
 H   -103.7498061696    -29.5267349354    -51.6219639090
 H      7.0447118658     -0.4004206848      4.4491273874
 H     -5.7418356181     -6.8707609314      8.3961468662
 H      0.2885233494     -2.8531313224     -1.5632887832
 H      6.2223801871    146.8857454729    -99.8195688794
9
# ORCA AIMD Position Step 94, t=235.00 fs, E_Pot=-27924.24480205 kJ mol^-1, Unit is Angstrom
 C      7.2464415366     -0.8289898068      5.7860041057
 C      1.1393382588     -2.9418281344      2.4985894654
 O      0.4882651411     -3.8728110651      2.8355381297
 H      7.8616447537     -1.4538735092      6.5291224760
 H   -106.3221877440    -30.2606074290    -52.9138614750
 H      7.4635961215     -0.3499068859      4.6600074924
 H     -6.3776300297     -7.2839253423      9.1068142933
 H      0.4350684588     -2.7691822673     -1.8671431426
 H      6.3023556138    149.3607611503   -101.5151308430
9
# ORCA AIMD Position Step 95, t=237.50 fs, E_Pot=-27988.28469251 kJ mol^-1, Unit is Angstrom
 C      7.4143423069     -0.8677526025      5.8978387303
 C      1.2444420398     -3.0427872486      2.6262293508
 O      0.4419220452     -3.8536031385      2.7873087265
 H      7.8760633223     -1.4567600287      6.6384623571
 H   -108.8945693086    -30.9944799230    -54.2057590359
 H      7.9133444317     -0.3988941160      5.0431286507
 H     -7.0134221160     -7.6970895739      9.8174811918
 H      0.5816251258     -2.6852753206     -2.1708136601
 H      6.3823310433    151.8357768231   -103.2106928020
9
# ORCA AIMD Position Step 96, t=240.00 fs, E_Pot=-27999.46347027 kJ mol^-1, Unit is Angstrom
 C      7.5735490556     -0.9017260749      6.0051871547
 C      1.3396553263     -3.1537433574      2.7558483304
 O      0.4030046163     -3.8268883485      2.7375849084
 H      7.9623048254     -1.4888080353      6.7693880070
 H   -111.4669508682    -31.7283524176    -55.4976565940
 H      8.3948530429     -0.4757900747      5.4581438928
 H     -7.6492130492     -8.1102538467     10.5281477571
 H      0.7281840788     -2.6013943099     -2.4743704565
 H      6.4623064744    154.3107924935   -104.9062547585
9
# ORCA AIMD Position Step 97, t=242.50 fs, E_Pot=-27951.21138372 kJ mol^-1, Unit is Angstrom
 C      7.7260743759     -0.9312519303      6.1067361947
 C      1.4227410091     -3.2734137028      2.8852175445
 O      0.3731897838     -3.7936315440      2.6880422121
 H      8.0943292897     -1.5926500192      6.9936966928
 H   -114.0393324279    -32.4622249123    -56.7895541522
 H      8.9102218212     -0.5338771047      5.8489188484
 H     -8.2850038495     -8.5234181055     11.2388141322
 H      0.8747454517     -2.5175236253     -2.7778648787
 H      6.5422819055    156.7858081639   -106.6018167150
9
# ORCA AIMD Position Step 98, t=245.00 fs, E_Pot=-27866.38839844 kJ mol^-1, Unit is Angstrom
 C      7.8969364354     -0.9607668598      6.2118686844
 C      1.4787962672     -3.4064839805      3.0095026254
 O      0.3636654552     -3.7503158468      2.6423125390
 H      8.1677096274     -1.6663202047      7.1693132191
 H   -116.6117139876    -33.1960974071    -58.0814517104
 H      9.2657735233     -0.6222453466      6.2457087810
 H     -8.9207945948     -8.9365823304     11.9494804121
 H      1.0213077364     -2.4336595016     -3.0813207608
 H      6.6222573367    159.2608238344   -108.2973786715
9
# ORCA AIMD Position Step 99, t=247.50 fs, E_Pot=-27871.73472069 kJ mol^-1, Unit is Angstrom
 C      8.0906954882     -0.9929884464      6.3278720541
 C      1.4956345275     -3.5516510973      3.1208744952
 O      0.3835813537     -3.6979197045      2.6062755451
 H      8.1646302649     -1.6883222670      7.2561389881
 H   -119.1840955473    -33.9299699018    -59.3733492686
 H      9.4249730296     -0.7300084844      6.6017579551
 H     -9.5565853171     -9.3497465427     12.6601466530
 H      1.1678697731     -2.3498000162     -3.3847517719
 H      6.7022327679    161.7358395048   -109.9929406280
9
# ORCA AIMD Position Step 100, t=250.00 fs, E_Pot=-27949.55837327 kJ mol^-1, Unit is Angstrom
 C      8.3049050621     -1.0266843554      6.4551587140
 C      1.4708878510     -3.7022943208      3.2130068956
 O      0.4347158310     -3.6414135897      2.5846818916
 H      8.0969003122     -1.6899815925      7.2870892193
 H   -121.7564771070    -34.6638423966    -60.6652468269
 H      9.4051526669     -0.8405256711      6.8792244418
 H    -10.1923760252     -9.7629107523     13.3708128816
 H      1.3144310488     -2.2659437485     -3.6881663465
 H      6.7822081991    164.2108551752   -111.6885025845
9
# ORCA AIMD Position Step 101, t=252.50 fs, E_Pot=-27929.56742350 kJ mol^-1, Unit is Angstrom
 C      8.5311919223     -1.0585884333      6.5874723984
 C      1.4120910839     -3.8509440942      3.2844978292
 O      0.5114126115     -3.5864051421      2.5785849007
 H      7.9592965551     -1.7344320915      7.3360190309
 H   -124.3288586668    -35.3977148914    -61.9571443851
 H      9.3113023271     -0.9295826918      7.0787935038
 H    -10.8281667206    -10.1760749604     14.0814791076
 H      1.4609913947     -2.1820896475     -3.9915698570
 H      6.8621836302    166.6858708456   -113.3840645410
9
# ORCA AIMD Position Step 102, t=255.00 fs, E_Pot=-27952.00032206 kJ mol^-1, Unit is Angstrom
 C      8.7180738837     -1.1020430932      6.7045812204
 C      1.3341233418     -3.9939706783      3.3409715684
 O      0.6025016305     -3.5356191846      2.5837626947
 H      7.8260639127     -1.7416227670      7.3179469641
 H   -126.9012402265    -36.1315873862    -63.2490419433
 H      9.6826188779     -0.9182497798      7.5265194109
 H    -11.4639574074    -10.5892391656     14.7921453348
 H      1.6075508256     -2.0982369567     -4.2949657944
 H      6.9421590614    169.1608865161   -115.0796264975
9
# ORCA AIMD Position Step 103, t=257.50 fs, E_Pot=-27876.21267896 kJ mol^-1, Unit is Angstrom
 C      8.9062865332     -1.1495638396      6.8354708386
 C      1.2483708133     -4.1321217233      3.3893955556
 O      0.6994360433     -3.4884932465      2.5949850611
 H      7.8205194154     -1.6654395125      7.2358755216
 H   -129.4736217863    -36.8654598810    -64.5409395015
 H      9.9103749183     -0.9418431815      7.8740107080
 H    -12.0997480861    -11.0024033654     15.5028115613
 H      1.7541093219     -2.0143851486     -4.5983566030
 H      7.0221344926    171.6359021866   -116.7751884540
9
# ORCA AIMD Position Step 104, t=260.00 fs, E_Pot=-27883.65110333 kJ mol^-1, Unit is Angstrom
 C      9.0963135104     -1.1987112173      6.9787298796
 C      1.1538933114     -4.2600361643      3.4251946642
 O      0.8029219289     -3.4490512694      2.6156861561
 H      7.9749075964     -1.5224425711      7.1425518838
 H   -132.0460033461    -37.5993323758    -65.8328370597
 H      9.9565589817     -1.0128834315      8.0853478376
 H    -12.7355387576    -11.4155675601     16.2134777862
 H      1.9006669798     -1.9305338046     -4.9017437225
 H      7.1021099238    174.1109178570   -118.4707504105
9
# ORCA AIMD Position Step 105, t=262.50 fs, E_Pot=-27944.54496292 kJ mol^-1, Unit is Angstrom
 C      9.2917069172     -1.2467910433      7.1307790186
 C      1.0492584996     -4.3644682918      3.4375622651
 O      0.9140340585     -3.4272373074      2.6539781478
 H      8.2406971660     -1.3503549754      7.0924749752
 H   -134.6183849058    -38.3332048706    -67.1247346178
 H      9.8273850444     -1.1257499854      8.1486943905
 H    -13.3713294083    -11.8287317320     16.9241440071
 H      2.0472238755     -1.8466827625     -5.2051278490
 H      7.1820853550    176.5859335275   -120.1663123670
9
# ORCA AIMD Position Step 106, t=265.00 fs, E_Pot=-27824.83649511 kJ mol^-1, Unit is Angstrom
 C      9.4995303040     -1.2935015885      7.2853379636
 C      0.9397008259     -4.4347561485      3.4213884687
 O      1.0288421776     -3.4310559948      2.7136967721
 H      8.4398076327     -1.1819409309      7.0829398830
 H   -137.1907664644    -39.0670773652    -68.4166321750
 H      9.6167756897     -1.2512684981      8.1415957519
 H    -14.0071198590    -12.2418957322     17.6348102063
 H      2.1937798799     -1.7628322856     -5.5085086312
 H      7.2620607864    179.0609491974   -121.8618743228
9
# ORCA AIMD Position Step 107, t=267.50 fs, E_Pot=-27797.12118314 kJ mol^-1, Unit is Angstrom
 C      9.6972906618     -1.3439392904      7.3647947106
 C      0.8334316772     -4.4680268618      3.3791178559
 O      1.1411815908     -3.4626644495      2.7930068058
 H      8.6108127081     -1.0117693692      7.0500543959
 H   -139.7631480227    -39.8009498597    -69.7085297318
 H      9.5541784150     -1.3341372060      9.0527443712
 H    -14.6429102357    -12.6550596484     18.3454764075
 H      2.3403352637     -1.6789820155     -5.8118870715
 H      7.3420362178    181.5359648673   -123.5574362784
9
# ORCA AIMD Position Step 108, t=270.00 fs, E_Pot=-27623.43407683 kJ mol^-1, Unit is Angstrom
 C      9.8873040379     -1.3923728160      7.4606063817
 C      0.7365214285     -4.4707224246      3.3190239465
 O      1.2464946630     -3.5172267922      2.8856969779
 H      8.8618379215     -0.8662845548      7.0514512706
 H   -142.3355295811    -40.5348223542    -71.0004272886
 H      9.5038763166     -1.4161991800      9.7347358321
 H    -15.2787006110    -13.0682235673     19.0561426072
 H      2.4868904908     -1.5951317312     -6.1152639394
 H      7.4220116492    184.0109805371   -125.2529982340
9
# ORCA AIMD Position Step 109, t=272.50 fs, E_Pot=-27555.23825318 kJ mol^-1, Unit is Angstrom
 C     10.0673693782     -1.4367460278      7.5639240684
 C      0.6486176009     -4.4565757612      3.2512760395
 O      1.3450459780     -3.5844334879      2.9841330547
 H      9.2129625924     -0.7732228733      7.1047417175
 H   -144.9079111391    -41.2686948489    -72.2923248452
 H      9.4720172850     -1.4942144383     10.2753973745
 H    -15.9144909219    -13.4813875105     19.7668087806
 H      2.6334458759     -1.5112813952     -6.4186402636
 H      7.5019870808    186.4859962068   -126.9485601895
9
# ORCA AIMD Position Step 110, t=275.00 fs, E_Pot=-27517.94961796 kJ mol^-1, Unit is Angstrom
 C     10.2417525253     -1.4777102835      7.6700310455
 C      0.5678728412     -4.4334615125      3.1807808539
 O      1.4382224911     -3.6583728333      3.0846315259
 H      9.6188519134     -0.7241207539      7.1959881031
 H   -147.4802926968    -42.0025673437    -73.5842224017
 H      9.4531044720     -1.5688841933     10.7448677252
 H    -16.5502811827    -13.8945514695     20.4774749281
 H      2.7800013651     -1.4274310499     -6.7220162844
 H      7.5819625126    188.9610118764   -128.6441221448
9
# ORCA AIMD Position Step 111, t=277.50 fs, E_Pot=-27482.10196912 kJ mol^-1, Unit is Angstrom
 C     10.4179465287     -1.5216219521      7.7801661075
 C      0.5040099505     -4.3953118161      3.1084198876
 O      1.5187250876     -3.7436001263      3.1865307140
 H      9.9961379433     -0.6419619159      7.2710537382
 H   -150.0526742546    -42.7364398386    -74.8761199582
 H      9.4412191316     -1.6414852419     11.1825208126
 H    -17.1860714347    -14.3077154336     21.1881410692
 H      2.9265569382     -1.3435806414     -7.0253918075
 H      7.6619379443    191.4360275460   -130.3396841002
9
# ORCA AIMD Position Step 112, t=280.00 fs, E_Pot=-27451.90235743 kJ mol^-1, Unit is Angstrom
 C     10.5946388066     -1.5671369201      7.8920932555
 C      0.4722745659     -4.3365273529      3.0385315655
 O      1.5751084966     -3.8443188435      3.2865736970
 H     10.3641002988     -0.5417221557      7.3378550505
 H   -152.6250558124    -43.4703123334    -76.1680175147
 H      9.4327195050     -1.7130598065     11.6070824067
 H    -17.8218616859    -14.7208793978     21.8988072096
 H      3.0731126038     -1.2597301572     -7.3287669204
 H      7.7419133760    193.9110432156   -132.0352460556
9
# ORCA AIMD Position Step 113, t=282.50 fs, E_Pot=-27451.24818252 kJ mol^-1, Unit is Angstrom
 C     10.7697542588     -1.6060077027      8.0006767410
 C      0.4815492691     -4.2594395519      2.9778667734
 O      1.6007043413     -3.9587785888      3.3796923747
 H     10.7497741095     -0.5209330095      7.4481146648
 H   -155.1974373702    -44.2041848283    -77.4599150712
 H      9.4252954269     -1.7843524112     12.0280257000
 H    -18.4576519324    -15.1340433639     22.6094733461
 H      3.2196682958     -1.1758796596     -7.6321418807
 H      7.8218888077    196.3860588853   -133.7308080110
9
# ORCA AIMD Position Step 114, t=285.00 fs, E_Pot=-27484.44277881 kJ mol^-1, Unit is Angstrom
 C     10.9446843961     -1.6360223187      8.1048110424
 C      0.5309823494     -4.1715632796      2.9316204963
 O      1.5961520470     -4.0813376565      3.4619866908
 H     11.1374077940     -0.6056996012      7.6121224830
 H   -157.7698189279    -44.9380573232    -78.7518126277
 H      9.4181174777     -1.8556157288     12.4482339656
 H    -19.0934421724    -15.5472073311     23.3201394772
 H      3.3662239581     -1.0920291849     -7.9355167890
 H      7.9018642394    198.8610745549   -135.4263699664
9
# ORCA AIMD Position Step 115, t=287.50 fs, E_Pot=-27502.43793547 kJ mol^-1, Unit is Angstrom
 C     11.1204468319     -1.6615345758      8.2068157693
 C      0.6096658791     -4.0812092678      2.8999383788
 O      1.5696405877     -4.2057569073      3.5333473265
 H     11.5150535383     -0.7441025538      7.8016980402
 H   -160.3422004856    -45.6719298181    -80.0437101841
 H      9.4110076422     -1.9268903927     12.8682475945
 H    -19.7292324106    -15.9603712986     24.0308056063
 H      3.5127795954     -1.0081787158     -8.2388916331
 H      7.9818396712    201.3360902246   -137.1219319218
9
# ORCA AIMD Position Step 116, t=290.00 fs, E_Pot=-27506.15692771 kJ mol^-1, Unit is Angstrom
 C     11.2942598156     -1.6915634487      8.3108284719
 C      0.7021537849     -3.9926459909      2.8773644055
 O      1.5327659119     -4.3288318511      3.5978703459
 H     11.9158965015     -0.8286753216      7.9674337449
 H   -162.9145820434    -46.4058023130    -81.3356077406
 H      9.4039263810     -1.9981757900     13.2881717396
 H    -20.3650226508    -16.3735352659     24.7414717381
 H      3.6593352471     -0.9243282308     -8.5422664015
 H      8.0618151029    203.8111058942   -138.8174938772
9
# ORCA AIMD Position Step 117, t=292.50 fs, E_Pot=-27486.81652407 kJ mol^-1, Unit is Angstrom
 C     11.4683391001     -1.7212158315      8.4147010468
 C      0.8040304313     -3.9078824176      2.8629342021
 O      1.4888430388     -4.4490542375      3.6562797420
 H     12.3135470472     -0.9177260551      8.1348937990
 H   -165.4869636011    -47.1396748079    -82.6275052971
 H      9.3968604635     -2.0694691570     13.7080382076
 H    -21.0008128912    -16.7866992332     25.4521378701
 H      3.8058907962     -0.8404777703     -8.8456410633
 H      8.1417905346    206.2861215638   -140.5130558325
9
# ORCA AIMD Position Step 118, t=295.00 fs, E_Pot=-27459.71743313 kJ mol^-1, Unit is Angstrom
 C     11.6484923807     -1.7450908003      8.5165693071
 C      0.9216863033     -3.8355879740      2.8667834883
 O      1.4330743997     -4.5599155913      3.7009662323
 H     12.6388096349     -1.0756133427      8.3262756178
 H   -168.0593451589    -47.8735473028    -83.9194028536
 H      9.3898031139     -2.1407681534     14.1278632700
 H    -21.6366031271    -17.1998631988     26.1628039975
 H      3.9524461316     -0.7566273554     -9.1490154822
 H      8.2217659664    208.7611372334   -142.2086177879
9
# ORCA AIMD Position Step 119, t=297.50 fs, E_Pot=-27454.26753254 kJ mol^-1, Unit is Angstrom
 C     11.8363664501     -1.7637448718      8.6169593068
 C      1.0566531038     -3.7878123096      2.8988700829
 O      1.3643100579     -4.6523698108      3.7244540996
 H     12.8720662620     -1.2957085893      8.5352988749
 H   -170.6317267165    -48.6074197977    -85.2113004100
 H      9.3827502195     -2.2120703570     14.5476595344
 H    -22.2723933575    -17.6130271618     26.8734701199
 H      4.0990012709     -0.6727769687     -9.4523895927
 H      8.3017413981    211.2361529030   -143.9041797433
9
# ORCA AIMD Position Step 120, t=300.00 fs, E_Pot=-27465.38815790 kJ mol^-1, Unit is Angstrom
 C     12.0270586566     -1.7811250528      8.7171308997
 C      1.2031520928     -3.7724439003      2.9619027454
 O      1.2868882956     -4.7204947197      3.7247097622
 H     13.0717378033     -1.5309830772      8.7469412241
 H   -173.2041082742    -49.3412922925    -86.5031979664
 H      9.3756995052     -2.2833736683     14.9674377525
 H    -22.9081835861    -18.0261911236     27.5841362402
 H      4.2455562874     -0.5889265895     -9.7557634525
 H      8.3817168298    213.7111685726   -145.5997416987
9
# ORCA AIMD Position Step 121, t=302.50 fs, E_Pot=-27492.15870614 kJ mol^-1, Unit is Angstrom
 C     12.2120901008     -1.7998611573      8.8171434579
 C      1.3525296322     -3.7896727842      3.0511626785
 O      1.2073056860     -4.7641475982      3.7052757449
 H     13.3388569997     -1.7501028490      8.9604885574
 H   -175.7764898318    -50.0751647874    -87.7950955228
 H      9.3686501638     -2.3546768668     15.3872052374
 H    -23.5439738148    -18.4393550854     28.2948023606
 H      4.3921112307     -0.5050762060    -10.0591371120
 H      8.4616922615    216.1861842422   -147.2953036540
9
# ORCA AIMD Position Step 122, t=305.00 fs, E_Pot=-27496.28235869 kJ mol^-1, Unit is Angstrom
 C     12.3999149615     -1.8184749516      8.9175137880
 C      1.4984089254     -3.8303665394      3.1561719547
 O      1.1303494645     -4.7901844153      3.6740181008
 H     13.5726881861     -1.9706834087      9.1697810883
 H   -178.3488713894    -50.8090372823    -89.0869930792
 H      9.3616013229     -2.4259794969     15.8069649567
 H    -24.1797640422    -18.8525190454     29.0054684791
 H      4.5386661049     -0.4212257886    -10.3625104555
 H      8.5416676933    218.6611999118   -148.9908656094
9
# ORCA AIMD Position Step 123, t=307.50 fs, E_Pot=-27496.67930943 kJ mol^-1, Unit is Angstrom
 C     12.5968131020     -1.8382676000      9.0198382703
 C      1.6399268036     -3.8824286163      3.2673127064
 O      1.0566675356     -4.8076864512      3.6381571847
 H     13.6984048111     -2.1772211390      9.3557965876
 H   -180.9212529469    -51.5429097771    -90.3788906356
 H      9.3545523667     -2.4972812168     16.2267188225
 H    -24.8155542674    -19.2656830009     29.7161345941
 H      4.6852209576     -0.3373753017    -10.6658833778
 H      8.6216431250    221.1362155814   -150.6864275647
9
# ORCA AIMD Position Step 124, t=310.00 fs, E_Pot=-27488.30865044 kJ mol^-1, Unit is Angstrom
 C     12.8017131303     -1.8605235030      9.1246052639
 C      1.7735421881     -3.9470235208      3.3834744731
 O      0.9889181838     -4.8157795171      3.5985265912
 H     13.7287752469     -2.3544108218      9.5127149732
 H   -183.4936345044    -52.2767822719    -91.6707881919
 H      9.3475032179     -2.5685820208     16.6464689226
 H    -25.4513444912    -19.6788469523     30.4268007067
 H      4.8317758389     -0.2535247417    -10.9692559593
 H      8.7016185567    223.6112312509   -152.3819895200
9
# ORCA AIMD Position Step 125, t=312.50 fs, E_Pot=-27461.43435716 kJ mol^-1, Unit is Angstrom
 C     13.0072589540     -1.8831239986      9.2296439848
 C      1.8863563637     -4.0346484245      3.5053353519
 O      0.9367848396     -4.8065831115      3.5546172525
 H     13.7514531045     -2.5274959227      9.6664009295
 H   -186.0660160618    -53.0106547666    -92.9626857482
 H      9.3404543171     -2.6398823301     17.0662170481
 H    -26.0871347153    -20.0920109020     31.1374668184
 H      4.9783307536     -0.1696741342    -11.2726283700
 H      8.7815939884    226.0862469204   -154.0775514753
9
# ORCA AIMD Position Step 126, t=315.00 fs, E_Pot=-27453.62748649 kJ mol^-1, Unit is Angstrom
 C     13.2090523041     -1.9024750199      9.3324810224
 C      1.9654663066     -4.1496719899      3.6289442646
 O      0.9099542183     -4.7768176146      3.5093954197
 H     13.8188468878     -2.7393004100      9.8463254257
 H   -188.6383976193    -53.7445272614    -94.2545833045
 H      9.3334059645     -2.7111825361     17.4859640198
 H    -26.7229249398    -20.5051748509     31.8481329299
 H      5.1248856982     -0.0858234936    -11.5760006900
 H      8.8615694201    228.5612625898   -155.7731134305
9
# ORCA AIMD Position Step 127, t=317.50 fs, E_Pot=-27463.12701650 kJ mol^-1, Unit is Angstrom
 C     13.4134014300     -1.9253321242      9.4374719933
 C      2.0051886628     -4.2880982923      3.7480914393
 O      0.9126929901     -4.7294829734      3.4675230212
 H     13.8557902649     -2.9093263868     10.0005873164
 H   -191.2107791767    -54.4783997561    -95.5464808608
 H      9.3263577211     -2.7824824385     17.9057102323
 H    -27.3587151653    -20.9183387973     32.5587990409
 H      5.2714407035     -0.0019728015    -11.8793728948
 H      8.9415448518    231.0362782593   -157.4686753858
9
# ORCA AIMD Position Step 128, t=320.00 fs, E_Pot=-27491.81292090 kJ mol^-1, Unit is Angstrom
 C     13.6213506711     -1.9561939059      9.5470451396
 C      2.0095652397     -4.4408055619      3.8581611936
 O      0.9419668302     -4.6714272881      3.4324652635
 H     13.8498394131     -2.9839690742     10.1002513489
 H   -193.7831607340    -55.2122722508    -96.8383784170
 H      9.3193093857     -2.8537818734     18.3254559142
 H    -27.9945053918    -21.3315027406     33.2694651520
 H      5.4179957989      0.0818779532    -12.1827449782
 H      9.0215202836    233.5112939286   -159.1642373409
9
# ORCA AIMD Position Step 129, t=322.50 fs, E_Pot=-27506.30718292 kJ mol^-1, Unit is Angstrom
 C     13.8308109154     -1.9938437240      9.6602733851
 C      1.9920993968     -4.5982326415      3.9595219301
 O      0.9876383738     -4.6098285124      3.4039456714
 H     13.8258862811     -2.9777243275     10.1563625793
 H   -196.3555422913    -55.9461447455    -98.1302759733
 H      9.3122610571     -2.9250810587     18.7452012570
 H    -28.6302956199    -21.7446666819     33.9801312642
 H      5.5645509727      0.1657287602    -12.4861169895
 H      9.1014957153    235.9863095979   -160.8597992960
9
# ORCA AIMD Position Step 130, t=325.00 fs, E_Pot=-27501.02350469 kJ mol^-1, Unit is Angstrom
 C     14.0402806631     -2.0300571835      9.7727786371
 C      1.9641501389     -4.7557824043      4.0550850164
 O      1.0411801893     -4.5481378618      3.3797786987
 H     13.8018194595     -2.9885910233     10.2210871827
 H   -198.9279238485    -56.6800172401    -99.4221735296
 H      9.3052129628     -2.9963803986     19.1649461970
 H    -29.2660858492    -22.1578306226     34.6907973775
 H      5.7111061829      0.2495795939    -12.7894889822
 H      9.1814711471    238.4613252672   -162.5553612510
