61
# ORCA AIMD Velocity Step 0, t=0.00 fs, E_Pot=-266623.49120164 kJ mol^-1, Unit is Angstrom fs^-1
Zn      0.0003737979     -0.0020822737      0.0004913276
 O     -0.0003963393      0.0010555304     -0.0033138377
 H     -0.0141586315     -0.0083739493     -0.0279450722
 H      0.0080635967      0.0245398690      0.0166628409
 O     -0.0092248768      0.0024896751     -0.0007489758
 H      0.0064243982      0.0093524596      0.0122301947
 H     -0.0079291071     -0.0097427828      0.0398173160
 O      0.0039675874      0.0000114179     -0.0002696481
 H      0.0089443308     -0.0030672778      0.0274177588
 H      0.0007217764      0.0279492772     -0.0005045268
 O     -0.0044961574     -0.0044406691     -0.0036331887
 H     -0.0144370725      0.0175447078      0.0016055393
 H      0.0202898952      0.0035385258     -0.0227136560
 O     -0.0014823845     -0.0017154820      0.0022070022
 H      0.0285526659      0.0100940497      0.0236068881
 H     -0.0046906059      0.0040081283      0.0211838263
 O      0.0036553915      0.0017439874     -0.0014400472
 H     -0.0076831750     -0.0211856554      0.0188064586
 H      0.0170321637     -0.0030005994     -0.0146295856
 O      0.0010500068      0.0070850585     -0.0068161566
 H     -0.0058747982     -0.0123365597     -0.0266215187
 H      0.0087068144      0.0366083009      0.0032361967
 O      0.0003547204     -0.0010408786     -0.0006940760
 H     -0.0025774277     -0.0080458463      0.0066446316
 H      0.0223922810      0.0013327644      0.0041842995
 O      0.0069234333      0.0018308126      0.0028752503
 H     -0.0094158240     -0.0164394818     -0.0245080429
 H     -0.0211821911      0.0106193093     -0.0160849282
 O      0.0032264787      0.0095806050     -0.0016262215
 H      0.0031979417      0.0109712539      0.0226201172
 H     -0.0011071019     -0.0132556137     -0.0210590641
 O      0.0023751620      0.0033426353      0.0041763067
 H     -0.0151379400     -0.0046161910      0.0274856619
 H      0.0049589427      0.0039393990     -0.0032451490
 O     -0.0043773453      0.0002164973     -0.0013530800
 H      0.0014954300      0.0055960269     -0.0034323570
 H     -0.0039280861     -0.0154267468     -0.0031786727
 O      0.0019711656     -0.0062520334     -0.0029893737
 H     -0.0263210793     -0.0020348439      0.0373523232
 H     -0.0084351471      0.0143015842     -0.0182527899
 O     -0.0003330114     -0.0044550991     -0.0057061898
 H     -0.0063169297     -0.0072525554     -0.0045618436
 H      0.0210214131     -0.0043506183     -0.0185921480
 O     -0.0037828622     -0.0017732991      0.0049130999
 H     -0.0084637208      0.0274153497      0.0060100779
 H      0.0089588874      0.0333825534      0.0042870905
 O     -0.0018360269     -0.0008676657     -0.0020799146
 H      0.0054166578     -0.0089647373      0.0264546044
 H      0.0471707702      0.0032661674      0.0029662630
 O      0.0029062243     -0.0000276378     -0.0023654124
 H      0.0036533508     -0.0106654775     -0.0079233512
 H     -0.0058895998      0.0314333822     -0.0145552035
 O     -0.0020619007     -0.0028245906      0.0076288675
 H     -0.0147407777      0.0063492097     -0.0057187347
 H     -0.0126747284      0.0065767854      0.0195156217
 O      0.0019977163     -0.0052791531      0.0062207016
 H     -0.0125548651     -0.0191083568     -0.0118064633
 H     -0.0211945792     -0.0095228608     -0.0069386331
 O     -0.0029212903      0.0039760117     -0.0025227564
 H     -0.0053729001     -0.0137431087      0.0116362007
 H      0.0282710278     -0.0047789437      0.0063175397
61
# ORCA AIMD Velocity Step 2000, t=500.00 fs, E_Pot=-267169.99223894 kJ mol^-1, Unit is Angstrom fs^-1
Zn     -0.0013218061     -0.0011815063      0.0002700035
 O     -0.0060238042     -0.0037683633     -0.0017244206
 H      0.0045772868     -0.0141628274     -0.0064474200
 H     -0.0221426690     -0.0008421241     -0.0150283346
 O     -0.0018744454     -0.0033618947      0.0076220057
 H      0.0082395463      0.0101378448      0.0180210372
 H     -0.0098023811     -0.0071300547     -0.0072594862
 O      0.0049680882      0.0002284803     -0.0040574667
 H      0.0094003747      0.0049992308      0.0181374432
 H      0.0277734458     -0.0139495369      0.0207290885
 O      0.0057212900     -0.0080187821     -0.0085998714
 H      0.0076751558     -0.0002799057     -0.0123252129
 H      0.0152233779     -0.0129196839     -0.0020920355
 O     -0.0061497048      0.0040082262     -0.0034975710
 H     -0.0122315179     -0.0060236631     -0.0046519041
 H      0.0288270667     -0.0172482668     -0.0249294223
 O      0.0059094803      0.0026459313      0.0024130139
 H      0.0201983546     -0.0062835156      0.0328219089
 H     -0.0023965594     -0.0089395755     -0.0001652509
 O     -0.0034894246      0.0064500703      0.0020453867
 H     -0.0050304821     -0.0037644313     -0.0135885760
 H      0.0012125328     -0.0020861336      0.0184470657
 O     -0.0058772853     -0.0073940409      0.0031530823
 H      0.0041396556     -0.0019113124     -0.0066562079
 H     -0.0127763610      0.0182705420     -0.0008957960
 O     -0.0001246710     -0.0058999027     -0.0017631489
 H      0.0001358812     -0.0155860480      0.0193436154
 H     -0.0237253646     -0.0011683055     -0.0169255588
 O      0.0052327312      0.0034759397      0.0017998335
 H      0.0045906263     -0.0085838209     -0.0048677393
 H     -0.0019180456     -0.0268617438     -0.0004910693
 O      0.0024329616     -0.0025920225      0.0030426359
 H      0.0087880452      0.0130229961     -0.0175632336
 H      0.0297529755      0.0150225279     -0.0016432084
 O     -0.0039395168      0.0079411725     -0.0021739784
 H      0.0134225118      0.0107201729     -0.0004458402
 H     -0.0096032262      0.0061918259      0.0082608825
 O      0.0025038447     -0.0038794671      0.0101203205
 H     -0.0031500692     -0.0063822995      0.0018461410
 H      0.0025129147      0.0125048359      0.0066998350
 O     -0.0014390542      0.0065294685      0.0130102659
 H     -0.0158234504     -0.0033262139     -0.0009699297
 H      0.0298987178      0.0245365534      0.0121455423
 O     -0.0026820782     -0.0061545158     -0.0083957880
 H     -0.0104614436      0.0264812948     -0.0076121244
 H      0.0048872606      0.0020973961      0.0088794901
 O     -0.0036431958      0.0048659492     -0.0064024569
 H     -0.0015861896     -0.0060927529     -0.0216765975
 H     -0.0082006687     -0.0055553846     -0.0217659864
 O     -0.0011930665      0.0039741121      0.0034446589
 H      0.0030645593      0.0206667453     -0.0014752980
 H     -0.0166618999     -0.0087672225      0.0074097735
 O     -0.0001523558     -0.0043931270     -0.0014555031
 H      0.0032320234      0.0044650024     -0.0220088291
 H     -0.0141057525      0.0004492243     -0.0007032949
 O      0.0093760272      0.0035825547     -0.0039568850
 H     -0.0118905144      0.0043989246      0.0012515731
 H     -0.0031450193      0.0128628759      0.0010902797
 O      0.0025910139      0.0055325199     -0.0020857968
 H      0.0132184523      0.0118544789     -0.0073334253
 H     -0.0044599443     -0.0040580118     -0.0133628402
61
# ORCA AIMD Velocity Step 4000, t=1000.00 fs, E_Pot=-267139.43807244 kJ mol^-1, Unit is Angstrom fs^-1
Zn      0.0009004367     -0.0045595222     -0.0024804003
 O     -0.0101679308     -0.0038038094      0.0004099330
 H     -0.0077088131     -0.0211666153      0.0097475247
 H      0.0090895240      0.0009887612     -0.0115802921
 O     -0.0021711624      0.0030704987      0.0076665835
 H      0.0128786950     -0.0109240950      0.0052971297
 H      0.0137331023      0.0083436966      0.0221775850
 O     -0.0043912170     -0.0030285983     -0.0013097752
 H      0.0154691051      0.0077519894      0.0311330756
 H      0.0048509137     -0.0243372583      0.0056875111
 O     -0.0031207055     -0.0033771154      0.0034626408
 H      0.0110679117     -0.0018335889      0.0019677525
 H     -0.0079347139      0.0152494650      0.0179314952
 O     -0.0082677443     -0.0034139048     -0.0093938729
 H      0.0089027740     -0.0208227105     -0.0264125606
 H     -0.0090228109     -0.0066793879     -0.0158070197
 O      0.0062142057      0.0079466653      0.0078236809
 H      0.0027845712      0.0005753885      0.0127301936
 H     -0.0114445367      0.0292930875      0.0079911119
 O      0.0090708344     -0.0020162414     -0.0056673343
 H      0.0079499191     -0.0174643044      0.0086841271
 H      0.0085517313     -0.0094256699     -0.0117129727
 O     -0.0057385806     -0.0051227443      0.0011339530
 H     -0.0069277663     -0.0165145042     -0.0006839619
 H     -0.0017318859      0.0034708835      0.0308275114
 O      0.0016229289      0.0090656782      0.0012269317
 H      0.0019405387     -0.0039301074     -0.0050821177
 H      0.0127832460     -0.0138259742      0.0144728278
 O      0.0060927488      0.0011863762      0.0041702212
 H      0.0016908902     -0.0052005441      0.0032228549
 H      0.0094555533     -0.0098380055     -0.0262616421
 O      0.0034943827      0.0000475660      0.0002366821
 H     -0.0055965477     -0.0044455875      0.0003732358
 H      0.0029471988     -0.0014849340      0.0147781219
 O     -0.0033269028      0.0071638739     -0.0012950188
 H     -0.0077452169      0.0144865785     -0.0013601098
 H      0.0061782224      0.0108180694     -0.0044487979
 O      0.0015583875     -0.0041419250      0.0081608622
 H     -0.0037204125     -0.0014114971      0.0247888753
 H      0.0144959899      0.0130114764      0.0073535729
 O      0.0004069477      0.0079137327      0.0130152474
 H     -0.0292561686     -0.0036346331      0.0176261926
 H      0.0176729090      0.0068963844      0.0012698700
 O     -0.0026721442     -0.0039412739     -0.0066679976
 H      0.0212356463     -0.0084873967     -0.0102713294
 H     -0.0053344834      0.0115357630      0.0150164968
 O     -0.0026378083      0.0034109474     -0.0072873913
 H     -0.0155255835     -0.0015721450     -0.0078706602
 H     -0.0066794951      0.0112293426     -0.0266111754
 O     -0.0033489281      0.0029638120     -0.0037279967
 H     -0.0154169312      0.0059722560     -0.0203642226
 H      0.0109599492     -0.0128217675      0.0032431152
 O      0.0007960968     -0.0007758817     -0.0009446122
 H      0.0004080908      0.0096312396      0.0029109109
 H     -0.0157177839     -0.0111786278     -0.0046271581
 O      0.0066285128      0.0044386221     -0.0033834670
 H     -0.0009139599     -0.0035893224     -0.0107500287
 H      0.0060875106      0.0014891602      0.0147151937
 O      0.0019009559      0.0036496771     -0.0040636112
 H      0.0065222518      0.0159980585      0.0078975743
 H      0.0125003833      0.0025251647      0.0062874938
