97
Rigid translation to O centroid; charge +1 singlet; order preserved
O 1.3926983331 -1.2817751258 1.0175490613
H 1.6778598450 -1.5172693468 0.0807095168
H 1.1967800045 -0.2903434214 0.9760761118
H 0.4782233356 -1.7070159599 1.0758666967
O -0.6300926978 -0.1284658315 -1.5238634014
H -0.1946835799 0.2517067437 -0.7217549926
H -1.5301002971 0.2243051541 -1.4715225740
O 1.2875644114 -2.0832929315 -1.4449435273
H 1.0770058429 -3.0000418239 -1.1991420685
H 0.4343056587 -1.6145072213 -1.4992783889
O 2.5377695754 -0.9996856046 -3.4944377184
H 2.0803565764 -1.5025729207 -2.7667261106
H 2.4409167637 -0.0691837518 -3.2186460578
O 1.2385962436 -4.3644187233 0.0580938975
H 2.1950962073 -4.1988980644 0.0285833848
H 0.9673584664 -4.0786246845 0.9481559512
O 1.6896966815 1.3185000923 -2.2995801548
H 0.8103719983 0.9295554712 -2.1317354954
H 1.5778385759 2.2690280160 -2.1443387849
O 1.0544082262 3.8682019165 -1.5051253046
H 1.3920451135 4.7303177151 -1.7852500203
H 1.2041775883 3.8140935726 -0.5416618856
O -1.0214386995 -2.2248235812 0.7868751243
H -1.1365326621 -2.9270391165 1.4298643352
H -1.1300412760 -2.6225996404 -0.0977687791
O 0.3601827845 1.0378283067 0.6656007406
H -0.4013613515 0.8923132088 1.2612236587
H 0.7367234708 1.9149543210 0.8436347773
O -0.1399747420 -0.5689645768 -4.1623323841
H 0.8175740625 -0.7605396940 -4.1744932780
H -0.3471911685 -0.4229461200 -3.2109575499
O -1.8505354118 0.0919930583 1.9015676669
H -1.4410562807 -0.2043986150 2.7414381239
H -1.7246654778 -0.6891952509 1.3217940403
O -2.6606855181 1.5366251644 -0.7721814573
H -2.3723284086 2.2188303545 -1.4136361229
H -2.1533392391 1.7129053278 0.0318288127
O 4.7233034058 -1.5630037031 -2.0225859534
H 4.0091358269 -1.4285926002 -2.6918316860
H 5.5571538333 -1.5237274505 -2.4919148586
O 1.8256463383 6.4435902989 -2.3498327387
H 1.2770001714 7.1711987115 -2.0418183127
H 2.0107702947 6.5966895097 -3.2809397067
O -0.2277848654 -0.9617670517 3.7656385206
H 0.1261995407 -1.7930054967 3.3976810865
H 0.5029832803 -0.3190783311 3.7072978504
O -1.4489622337 3.2241164770 -2.4939386120
H -1.2311368891 2.8240447087 -3.3563812515
H -0.5882605907 3.4962903164 -2.1179087941
O -1.3176856389 -3.5115833196 -1.5968781954
H -1.4288085165 -3.2348152277 -2.5258413392
H -1.8194186724 -4.3206246374 -1.4951995531
O 0.7098468198 -3.4467779620 2.7378680060
H 1.6736997627 -3.2660577379 2.6914297845
H 0.6056692776 -4.1412575539 3.3883384613
O -0.8075864220 1.9672568501 -4.8816494654
H -0.5355465712 1.0405594869 -4.6883260172
H -1.4757592807 1.9112404526 -5.5670197244
O 3.9474043767 -3.5325710279 -0.1779188405
H 4.5537015510 -4.2257649019 -0.4431183008
H 4.1170426246 -2.7793807569 -0.7744713437
O 1.6259362457 1.0805420545 3.4554366695
H 2.3642188310 1.2107349408 2.8325079574
H 1.3218096436 1.9689612400 3.6814517937
O -4.4138773865 0.4954723146 1.0986213043
H -3.5807112875 0.3019330633 1.5854480932
H -4.0920171540 0.9131707231 0.2804477858
O 0.8655244071 3.8426438938 3.8279925782
H -0.0746170167 4.0261060573 4.0127341394
H 1.3692363953 4.3953450295 4.4304910306
O 3.6423492642 1.7563481136 1.6437075793
H 4.5886999782 1.8194446972 1.7723302924
H 3.4950271746 1.1275421259 0.8839962925
O -1.4870826841 -2.9059054448 -4.2762175849
H -1.0511029936 -2.0246077256 -4.3425661125
H -1.0286183133 -3.4801793507 -4.8934683044
O -1.7825564364 4.3885014318 4.3631537461
H -2.2887586665 3.7571484275 4.8838855431
H -2.3550124027 4.6879708738 3.6497840530
O 1.5690354397 3.4397710091 1.1629093783
H 1.2754210574 3.7231842817 2.0434092328
H 2.4198944733 2.9772381730 1.3052201524
O -6.0020806922 2.2857303377 2.5025011974
H -5.4314046340 1.6580947290 2.0109461515
H -6.8564895450 1.8549028547 2.5804960521
O -5.7306746306 -1.7764649622 0.2892518252
H -5.6623563124 -1.7181453661 -0.6677168176
H -5.2784370082 -0.9787768336 0.6403948722
O 3.1914633244 0.1473972376 -0.3757013735
H 3.8522214809 -0.3569533454 -0.8641087338
H 2.6403709454 0.6078031202 -1.0446712217
O -5.5501232773 -4.2671302839 1.5518864299
H -5.6113710289 -3.4154784299 1.0794300604
H -6.0361238809 -4.1425178734 2.3712784553
O 3.4097154589 -3.3078884269 2.5485329862
H 4.0605480395 -2.7635323670 2.9945409142
H 3.6294640698 -3.2940075643 1.5984551929
